 vasp.5.4.4.18Apr17-6-g9f103f2a35 (build Jun 30 2017 19:19:18) complex

 executed on         MareNostrum4 date 2022.06.19  18:43:20

 INCAR:
 POTCAR:    PAW_PBE Au 04Oct2007
 POTCAR:    PAW_PBE C 08Apr2002
 POTCAR:    PAW_PBE N 08Apr2002
 POTCAR:    PAW_PBE H 15Jun2001
 POTCAR:    PAW_PBE Au 04Oct2007

 POTCAR:    PAW_PBE C 08Apr2002

 POTCAR:    PAW_PBE N 08Apr2002

 POTCAR:    PAW_PBE H 15Jun2001

 Optimization of the real space projectors (new method)

 maximal supplied QI-value         = 15.12
 optimisation between [QCUT,QGAM] = [ 10.73, 21.62] = [ 32.26,130.87] Ry
 Optimized for a Real-space Cutoff    1.42 Angstroem

   l    n(q)    QCUT    max X(q) W(low)/X(q) W(high)/X(q)  e(spline)
   2      8    10.734    60.898    0.15E-03    0.34E-03    0.26E-06
   2      8    10.734    58.894    0.16E-03    0.35E-03    0.27E-06
   0      9    10.734   109.617    0.92E-04    0.16E-03    0.12E-06
   0      9    10.734    75.026    0.89E-04    0.15E-03    0.11E-06
   1      9    10.734    16.344    0.25E-03    0.88E-04    0.14E-06
   1      9    10.734    10.160    0.20E-03    0.77E-04    0.11E-06
 Optimization of the real space projectors (new method)

[...]

   l    n(q)    QCUT    max X(q) W(low)/X(q) W(high)/X(q)  e(spline)
   0      8    10.807    79.467    0.34E-03    0.68E-03    0.21E-06
   0      8    10.807    66.151    0.34E-03    0.67E-03    0.21E-06
   1      7    10.807    14.030    0.45E-03    0.13E-02    0.11E-05
   1      7    10.807     9.831    0.48E-03    0.13E-02    0.11E-05
 Optimization of the real space projectors (new method)

 maximal supplied QI-value         = 34.20
 optimisation between [QCUT,QGAM] = [ 10.60, 21.55] = [ 31.48,130.03] Ry
 Optimized for a Real-space Cutoff    1.23 Angstroem

   l    n(q)    QCUT    max X(q) W(low)/X(q) W(high)/X(q)  e(spline)
   0      8    10.603    19.460    0.37E-03    0.59E-03    0.23E-06
   0      8    10.603    12.209    0.35E-03    0.56E-03    0.22E-06
   1      7    10.603     4.655    0.70E-04    0.28E-03    0.29E-06
  PAW_PBE Au 04Oct2007                  :
  PAW_PBE C 08Apr2002                   :
  PAW_PBE N 08Apr2002                   :
  PAW_PBE H 15Jun2001                   :

 POSCAR: Au  C  N  H
  positions in direct lattice
  velocities in cartesian coordinates
 exchange correlation table for  LEXCH =        8
   RHO(1)=    0.500       N(1)  =     2000
   RHO(2)=  100.500       N(2)  =     4000

 ion  position               nearest neighbor table
   1  0.000  0.000  0.000- 102 2.94  57 2.94  13 2.94 101 2.94   2 2.94 156 2.94  56 2.94  68 2.94
                           114 2.94
   2  0.083  0.083  0.000-   3 2.94   7 2.94   4 2.94 102 2.94  14 2.94  15 2.94   1 2.94  57 2.94
                            13 2.94
   3  0.167  0.167  0.000-   2 2.94   4 2.94   7 2.94  15 2.94   5 2.94  19 2.94  10 2.94   8 2.94
                            17 2.94
   4  0.250  0.000  0.000-   3 2.94   2 2.94  15 2.94  71 2.94  57 2.94  60 2.94   5 2.94  59 2.94
                            16 2.94
   5  0.333  0.083  0.000-  10 2.94  17 2.94   3 2.94   6 2.94  18 2.94  16 2.94   4 2.94  97 2.94
                            60 2.94
   6  0.417  0.167  0.000-  98 2.94  97 2.94 103 2.94   5 2.94  18 2.94 110 2.94  10 2.94  11 2.94
                            22 2.94
   7  0.000  0.250  0.000-   2 2.94   3 2.94   8 2.94  19 2.94 102 2.94 107 2.94 108 2.94  14 2.94
                           120 2.94
   8  0.083  0.333  0.000-  49 2.94   7 2.94  20 2.94  19 2.94  10 2.94   9 2.94 108 2.94   3 2.94
                            21 2.94
   9  0.167  0.417  0.000-  50 2.94  61 2.94  52 2.94  49 2.94  23 2.94  21 2.94   8 2.94  11 2.94
                            10 2.94
  10  0.250  0.250  0.000-   5 2.94  22 2.94  17 2.94  21 2.94   3 2.94   6 2.94   8 2.94  11 2.94
                             9 2.94
  11  0.333  0.333  0.000-  52 2.94  12 2.94 103 2.94  24 2.94   9 2.94  10 2.94   6 2.94  23 2.94
                            22 2.94
  12  0.417  0.417  0.000-  52 2.94  53 2.94  11 2.94  64 2.94 145 2.94  24 2.94 104 2.94 103 2.94
                           116 2.94
  13  0.083  0.000  0.120-  25 2.90  26 2.91  81 2.91  14 2.94   1 2.94  57 2.94  68 2.94 114 2.94
                            15 2.94  71 2.94  69 2.94   2 2.94
  14  0.000  0.167  0.120- 131 2.90  27 2.91  25 2.91  13 2.94 114 2.94  15 2.94   2 2.94 102 2.94
                           118 2.94  19 2.94 120 2.94   7 2.94
  15  0.167  0.083  0.120-  27 2.91  28 2.91  26 2.91  19 2.94   3 2.94  14 2.94  17 2.94   2 2.94
                             4 2.94  16 2.94  13 2.94  71 2.94
  16  0.333  0.000  0.120-  29 2.91  28 2.91  84 2.91  17 2.94  18 2.94 164 2.94   5 2.94  60 2.94
                            15 2.94  71 2.94  72 2.94   4 2.94
  17  0.250  0.167  0.120-  32 2.91  28 2.91  30 2.91  18 2.94  16 2.94  22 2.94   5 2.94  15 2.94
                            10 2.94  19 2.94  21 2.94   3 2.94
  18  0.417  0.083  0.120-  29 2.91  30 2.91 121 2.91  17 2.94  22 2.94  16 2.94 110 2.94   6 2.94
                             5 2.94 109 2.94 164 2.94  97 2.94
  19  0.083  0.250  0.120-  31 2.91  32 2.91  27 2.91  15 2.94   7 2.94   3 2.94   8 2.94  17 2.94
                            14 2.94 120 2.94  21 2.94  20 2.94
  20  1.000  0.417  0.120-  33 2.90 173 2.91  31 2.91 162 2.94  49 2.94  61 2.94 160 2.94   8 2.94
                           120 2.94  21 2.94  19 2.94 108 2.94
  21  0.167  0.333  0.120-  34 2.90  33 2.91  32 2.91  61 2.94  22 2.94  23 2.94   9 2.94  10 2.94
                            20 2.94  19 2.94  17 2.94   8 2.94
  22  0.333  0.250  0.120-  35 2.90  34 2.90  30 2.91  18 2.94  21 2.94  17 2.94  10 2.94 110 2.94
                            24 2.94  23 2.94   6 2.94  11 2.94
  23  0.250  0.417  0.120-  74 2.89  34 2.90  36 2.92  61 2.94  63 2.94  21 2.94  64 2.94  52 2.94
                             9 2.94  24 2.94  22 2.94  11 2.94
  24  0.417  0.333  0.120-  35 2.91  36 2.91 127 2.91  64 2.94  11 2.94  12 2.94 103 2.94 115 2.94
                           116 2.94  23 2.94  22 2.94 110 2.94
  25  0.000  0.083  0.238-  13 2.90 114 2.91  14 2.91 126 2.93  26 2.94  81 2.94 131 2.94  27 2.94
                           125 2.94  37 2.94 138 2.94  38 2.95
  26  0.167  1.000  0.238-  71 2.91  13 2.91  15 2.91  84 2.94  25 2.94  82 2.94  28 2.94  27 2.94
                            81 2.94  93 2.94  40 2.94  38 2.95
  27  0.083  0.167  0.238-  15 2.91  14 2.91  19 2.91 131 2.93  32 2.94  28 2.94  31 2.94  26 2.94
                            25 2.94  43 2.94  39 2.95  38 2.95
  28  0.250  0.083  0.238-  16 2.91  15 2.91  17 2.91  84 2.94  27 2.94  32 2.94  29 2.94  30 2.94
                            26 2.94  41 2.94  40 2.95  39 2.95
  29  0.417  0.000  0.238-  18 2.91  16 2.91 164 2.91  30 2.94  28 2.94 175 2.94 121 2.94  84 2.94
                           177 2.94  41 2.94 133 2.94  96 2.95
  30  0.333  0.167  0.238-  17 2.91  22 2.91  18 2.91  35 2.93  29 2.94  32 2.94  28 2.94  34 2.94
                           121 2.94  42 2.95  41 2.95  46 2.95
  31  0.000  0.333  0.238-  19 2.91 120 2.91  20 2.91  33 2.93 131 2.94 132 2.94  27 2.94  32 2.94
                           173 2.94 144 2.94  44 2.95  43 2.95
  32  0.167  0.250  0.238-  19 2.91  17 2.91  21 2.91  34 2.93  27 2.94  33 2.94  31 2.94  28 2.94
                            30 2.94  46 2.94  44 2.95  39 2.95
  33  0.083  0.416  0.238-  20 2.90  21 2.91  61 2.91  74 2.93  31 2.93 173 2.94  34 2.94  32 2.94
                            45 2.94  73 2.94  44 2.95  85 2.95
  34  0.250  0.333  0.238-  21 2.90  23 2.90  22 2.90  47 2.93  32 2.93  33 2.94  74 2.94  30 2.94
                            35 2.95  36 2.95  45 2.95  46 2.96
  35  0.417  0.250  0.238-  22 2.90 110 2.90  24 2.91  30 2.93 121 2.93 139 2.93  47 2.94  36 2.94
                           127 2.94  34 2.95 123 2.95  42 2.96
  36  0.334  0.416  0.238-  88 2.90  24 2.91  64 2.92  23 2.92  77 2.93 127 2.93  48 2.94  35 2.94
                            47 2.95  34 2.95  76 2.95  74 2.97
  37  0.000  1.000  0.358- 138 2.93  93 2.93  92 2.94 137 2.94  38 2.94 192 2.94  81 2.94  25 2.94
                           125 2.94
  38  0.084  0.083  0.358- 138 2.93  93 2.93  43 2.93  39 2.93  40 2.93  37 2.94  26 2.95  27 2.95
                            25 2.95
  39  0.167  0.167  0.359-  46 2.93  43 2.93  38 2.93  40 2.94  44 2.94  41 2.94  27 2.95  28 2.95
                            32 2.95
  40  0.250  1.000  0.358-  38 2.93  41 2.94  95 2.94  93 2.94  39 2.94  96 2.94  26 2.94  84 2.94
                            28 2.95
  41  0.333  0.083  0.358-  42 2.93  46 2.93  96 2.93  40 2.94  39 2.94 133 2.94  28 2.94  29 2.94
                            30 2.95
  42  0.417  0.166  0.359- 139 2.92  47 2.93  41 2.93 133 2.93  46 2.94  30 2.95 121 2.95 134 2.95
                            35 2.96
  43  0.000  0.250  0.359- 143 2.92  39 2.93  38 2.93  44 2.94 138 2.94 144 2.94  27 2.94  31 2.95
                           131 2.95
  44  0.083  0.333  0.359-  45 2.92  46 2.93 144 2.93  43 2.94  39 2.94  85 2.94  33 2.95  31 2.95
                            32 2.95
  45  0.166  0.416  0.359-  88 2.91  44 2.92  85 2.93  47 2.94  46 2.94  33 2.94  34 2.95  86 2.96
                            74 2.97
  46  0.250  0.250  0.359-  47 2.92  39 2.93  44 2.93  41 2.93  45 2.94  42 2.94  32 2.94  30 2.95
                            34 2.96
  47  0.333  0.332  0.358-  46 2.92  42 2.93  34 2.93  45 2.94  35 2.94  48 2.94  36 2.95 139 2.97
                            88 2.98
  48  0.417  0.414  0.359- 198 2.71 127 2.93  36 2.94  47 2.94 139 2.95  77 2.95 140 3.00  88 3.01
                           181 3.02  89 3.02
  49  1.000  0.500  0.000-   8 2.94  20 2.94   9 2.94 108 2.94  50 2.94 149 2.94 150 2.94 162 2.94
                            61 2.94
  50  0.083  0.583  0.000-   9 2.94  63 2.94  61 2.94  62 2.94  51 2.94  52 2.94  49 2.94 150 2.94
                            55 2.94
  51  0.167  0.667  0.000-  56 2.94  53 2.94  58 2.94  65 2.94  50 2.94  55 2.94  52 2.94  63 2.94
                            67 2.94
  52  0.250  0.500  0.000-  12 2.94  11 2.94  53 2.94   9 2.94  23 2.94  64 2.94  50 2.94  51 2.94
                            63 2.94
  53  0.333  0.583  0.000-  12 2.94  52 2.94  51 2.94  64 2.94  65 2.94  54 2.94 145 2.94  58 2.94
                            66 2.94
  54  0.417  0.667  0.000-  59 2.94 158 2.94  66 2.94  70 2.94  53 2.94 146 2.94 151 2.94  58 2.94
                           145 2.94
  55  1.000  0.750  0.000- 156 2.94 155 2.94  56 2.94 168 2.94  67 2.94  62 2.94 150 2.94  51 2.94
                            50 2.94
  56  0.083  0.833  0.000-  58 2.94  51 2.94  57 2.94  55 2.94  67 2.94  69 2.94 156 2.94   1 2.94
                            68 2.94
  57  0.167  0.917  0.000-  58 2.94  56 2.94   1 2.94  69 2.94  13 2.94   4 2.94  59 2.94   2 2.94
                            71 2.94
  58  0.250  0.750  0.000-  56 2.94  57 2.94  51 2.94  69 2.94  59 2.94  65 2.94  54 2.94  53 2.94
                            70 2.94
  59  0.333  0.833  0.000-  54 2.94  70 2.94 151 2.94  58 2.94  72 2.94  71 2.94  60 2.94  57 2.94
                             4 2.94
  60  0.417  0.917  0.000- 151 2.94 164 2.94  16 2.94  59 2.94   4 2.94 152 2.94  97 2.94   5 2.94
[...]
   -.167E+01 0.736E+01 -.741E+03   0.168E+01 -.737E+01 0.741E+03   -.493E-02 0.734E-02 0.616E+00   0.600E-04 -.233E-03 0.860E-03
   0.220E+02 0.152E+02 -.738E+03   -.220E+02 -.152E+02 0.737E+03   -.210E-02 -.838E-04 0.616E+00   -.263E-04 -.144E-03 0.856E-03
   0.328E+02 0.555E+01 -.730E+03   -.328E+02 -.557E+01 0.730E+03   -.756E-02 0.226E-01 0.582E+00   0.767E-04 -.281E-03 0.875E-03
   0.483E+02 0.253E+02 -.699E+03   -.483E+02 -.253E+02 0.699E+03   0.232E-01 0.606E-02 0.656E+00   -.454E-05 -.677E-04 0.862E-03
   0.355E+02 0.490E+02 -.678E+03   -.356E+02 -.491E+02 0.677E+03   0.369E-01 0.510E-01 0.660E+00   -.143E-03 0.194E-03 0.872E-03
   0.506E+02 0.173E+02 -.637E+03   -.505E+02 -.173E+02 0.636E+03   -.690E-01 0.665E-02 0.364E+00   0.654E-04 0.583E-04 0.936E-03
   -.750E+01 -.378E+01 -.225E+04   0.751E+01 0.380E+01 0.225E+04   -.879E-02 -.122E-01 0.393E+00   0.326E-03 0.358E-04 0.383E-03
   -.857E+01 -.132E+01 -.226E+04   0.857E+01 0.134E+01 0.226E+04   0.243E-02 -.143E-01 0.370E+00   0.201E-03 -.312E-04 0.302E-03
   0.144E+02 0.134E+02 -.226E+04   -.144E+02 -.134E+02 0.226E+04   0.355E-01 -.533E-02 0.340E+00   -.389E-04 -.116E-03 0.264E-03
   -.370E+00 -.186E+02 -.226E+04   0.352E+00 0.186E+02 0.226E+04   0.199E-01 0.118E-02 0.370E+00   -.299E-04 0.488E-04 0.288E-03
   0.230E+02 0.224E+02 -.225E+04   -.230E+02 -.224E+02 0.225E+04   0.118E-01 0.901E-02 0.370E+00   -.257E-03 -.238E-04 0.281E-03
   0.574E+02 0.834E+02 -.222E+04   -.574E+02 -.834E+02 0.222E+04   0.273E-01 -.108E-01 0.270E+00   -.196E-03 0.141E-03 0.191E-03
   -.183E+02 0.137E+02 -.226E+04   0.183E+02 -.137E+02 0.226E+04   -.396E-02 0.238E-01 0.350E+00   0.144E-03 -.133E-03 0.284E-03
   0.327E+02 0.162E+02 -.225E+04   -.327E+02 -.162E+02 0.225E+04   -.293E-01 -.132E-01 0.333E+00   -.960E-05 -.201E-03 0.265E-03
   0.110E+03 0.228E+02 -.220E+04   -.110E+03 -.229E+02 0.220E+04   0.277E-01 0.670E-01 0.155E+00   0.128E-03 -.129E-03 0.248E-03
   0.639E+02 0.459E+02 -.223E+04   -.640E+02 -.459E+02 0.223E+04   0.292E-01 0.179E-01 0.296E+00   -.109E-03 -.602E-04 0.132E-03
   0.129E+03 0.978E+02 -.211E+04   -.129E+03 -.979E+02 0.211E+04   0.178E+00 0.746E-01 0.148E+00   0.123E-03 0.182E-03 0.337E-03
   0.694E+02 0.621E+02 -.186E+04   -.695E+02 -.624E+02 0.186E+04   0.147E+00 0.315E+00 0.109E+01   0.389E-04 0.221E-03 0.584E-03
   0.922E+01 -.149E+01 0.228E+04   -.919E+01 0.149E+01 -.228E+04   -.218E-01 0.623E-02 -.447E+00   0.872E-04 -.301E-03 0.148E-03
   0.175E+02 -.733E+01 0.228E+04   -.175E+02 0.731E+01 -.228E+04   0.184E-01 0.112E-01 -.350E+00   0.267E-03 -.247E-03 0.134E-03
   0.138E+02 -.159E+02 0.228E+04   -.138E+02 0.159E+02 -.228E+04   -.264E-02 0.104E-01 -.394E+00   0.309E-03 -.945E-04 0.183E-03
   0.184E+02 -.417E+01 0.228E+04   -.184E+02 0.416E+01 -.228E+04   -.153E-01 0.498E-02 -.426E+00   0.138E-03 -.783E-04 0.247E-03
   0.587E+01 -.147E+02 0.228E+04   -.585E+01 0.147E+02 -.228E+04   -.161E-01 0.104E-01 -.440E+00   0.835E-04 0.334E-04 0.352E-03
   -.771E+01 -.201E+02 0.228E+04   0.770E+01 0.201E+02 -.228E+04   0.753E-02 0.453E-02 -.420E+00   -.742E-04 0.461E-04 0.349E-03
   0.108E+02 -.885E+01 0.228E+04   -.108E+02 0.884E+01 -.228E+04   0.217E-01 0.195E-02 -.384E+00   0.377E-03 -.114E-03 0.106E-03
   0.585E+01 -.131E+02 0.228E+04   -.584E+01 0.131E+02 -.228E+04   -.126E-02 -.647E-02 -.396E+00   0.362E-03 -.483E-04 0.142E-03
   -.437E-02 -.130E+02 0.228E+04   0.341E-01 0.130E+02 -.228E+04   -.248E-01 -.102E-01 -.397E+00   0.153E-03 -.920E-04 0.305E-03
   0.315E+01 -.214E+02 0.228E+04   -.313E+01 0.214E+02 -.228E+04   -.955E-02 0.113E-01 -.379E+00   0.168E-03 -.288E-04 0.249E-03
   -.391E+01 -.181E+02 0.228E+04   0.392E+01 0.181E+02 -.228E+04   -.996E-02 0.676E-02 -.429E+00   -.814E-04 -.713E-04 0.288E-03
   -.228E+01 -.629E+01 0.228E+04   0.228E+01 0.627E+01 -.228E+04   -.487E-02 0.343E-02 -.416E+00   -.280E-03 -.878E-05 0.257E-03
[...]
   0.123E+03 0.120E+03 -.729E+03   -.124E+03 -.121E+03 0.728E+03   0.107E+01 0.127E+01 0.451E+00   0.124E-03 0.168E-03 -.103E-03
   0.264E+01 0.642E+02 -.721E+03   -.351E+01 -.593E+02 0.721E+03   0.833E+00 -.489E+01 -.496E-02   -.468E-04 0.169E-03 -.120E-03
   -.443E+02 0.264E+03 -.925E+03   0.434E+02 -.268E+03 0.937E+03   0.908E+00 0.435E+01 -.126E+02   -.748E-04 0.368E-03 -.197E-03
   0.251E+03 -.567E+02 -.946E+03   -.254E+03 0.569E+02 0.958E+03   0.354E+01 -.198E+00 -.118E+02   0.359E-03 -.597E-04 -.209E-03
   -.504E+02 -.713E+02 -.178E+03   0.542E+02 0.757E+02 0.179E+03   -.382E+01 -.433E+01 -.580E+00   -.450E-04 -.639E-04 -.581E-04
   0.193E+02 -.854E+02 -.185E+03   -.210E+02 0.908E+02 0.185E+03   0.171E+01 -.547E+01 -.519E+00   0.107E-04 -.636E-04 -.540E-04
   0.602E+02 0.648E+02 -.190E+03   -.640E+02 -.691E+02 0.190E+03   0.380E+01 0.429E+01 -.337E-01   0.414E-04 0.544E-04 -.422E-04
   -.796E+02 0.545E+02 -.177E+03   0.869E+02 -.562E+02 0.176E+03   -.729E+01 0.161E+01 0.607E+00   -.309E-04 0.617E-04 -.419E-04
   0.402E+02 0.870E+02 -.170E+03   -.446E+02 -.923E+02 0.168E+03   0.448E+01 0.532E+01 0.265E+01   0.239E-05 0.702E-04 -.366E-04
   0.549E+02 -.800E+02 -.180E+03   -.574E+02 0.868E+02 0.179E+03   0.246E+01 -.695E+01 0.120E+01   0.594E-04 -.348E-04 -.446E-04
   0.816E+02 0.498E+02 -.179E+03   -.865E+02 -.552E+02 0.177E+03   0.490E+01 0.540E+01 0.168E+01   0.637E-04 0.102E-04 -.441E-04
   -.386E+02 0.303E+02 -.176E+03   0.393E+02 -.330E+02 0.180E+03   -.637E+00 0.270E+01 -.467E+01   -.487E-04 0.227E-04 -.715E-04
   -.640E+02 -.489E+02 -.167E+03   0.671E+02 0.535E+02 0.167E+03   -.313E+01 -.462E+01 -.270E+00   -.549E-04 -.134E-04 -.547E-04
   -.566E+02 0.333E+02 -.159E+03   0.588E+02 -.361E+02 0.156E+03   -.216E+01 0.295E+01 0.388E+01   -.463E-04 0.181E-04 -.285E-04
   0.196E+01 0.172E+01 0.236E+02   -.615E-11 -.583E-12 0.682E-11   -.198E+01 -.167E+01 -.234E+02   0.177E-04 0.378E-03 0.119E+00

 POSITION                                       TOTAL-FORCE (eV/Angst)
      0.00000      0.00000      0.00000         0.001798      0.002177     -0.013022
      2.54506      1.46939      0.00000        -0.000416      0.000984     -0.016003
      5.09012      2.93878      0.00000        -0.000940      0.000501     -0.016251
      5.09012      0.00000      0.00000        -0.006923     -0.000055     -0.010856
      7.63518      1.46939      0.00000        -0.003292      0.005233     -0.013992
     10.18024      2.93878      0.00000         0.001323      0.002973     -0.013735
      2.54506      4.40817      0.00000        -0.000003     -0.004905     -0.012381
      5.09012      5.87756      0.00000         0.003252      0.000861     -0.011342
      7.63518      7.34695      0.00000         0.002582      0.004246     -0.011339
      7.63518      4.40817      0.00000         0.002223      0.004367     -0.013954
     10.18024      5.87756      0.00000        -0.002432      0.002118     -0.017500
     12.72529      7.34695      0.00000        -0.002289     -0.003018     -0.018730
      1.69671      0.00000      2.39950         0.002079     -0.005211      0.019513
      1.69671      2.93878      2.39950         0.002528     -0.001985      0.020132
      4.24176      1.46939      2.39950         0.001341     -0.000875      0.023753
      6.78682      0.00000      2.39950         0.000610      0.004062      0.017195
      6.78682      2.93878      2.39950         0.003218      0.000722      0.022232
      9.33188      1.46939      2.39950         0.001997      0.002660      0.020483
      4.24176      4.40817      2.39950         0.000426     -0.004244      0.019178
     24.60224      7.34695      2.39950        -0.008343     -0.003279      0.011203
      6.78682      5.87756      2.39950        -0.016559     -0.007728     -0.000154
      9.33188      4.40817      2.39950        -0.006781     -0.004229      0.002089
      9.33188      7.34695      2.39950         0.049357     -0.015835      0.016391
     11.87694      5.87756      2.39950         0.005404      0.017249      0.023899
      0.85029      1.46456      4.75955         0.001898      0.002932      0.003685
     13.57462     17.63044      4.76035        -0.004092      0.000742     -0.000983
      3.39412      2.93695      4.76042         0.002054      0.000109     -0.001902
      5.93844      1.46891      4.76026        -0.001114      0.002323     -0.000218
      8.48333      0.00121      4.75989         0.000741     -0.003765     -0.000115
      8.48280      2.93891      4.76115        -0.003890     -0.002146      0.000080
      3.39270      5.87449      4.76066        -0.001171      0.005332      0.000452
      5.93713      4.40650      4.76023         0.004149     -0.001660      0.002938
      5.93027      7.34362      4.76046         0.000187      0.005555     -0.001031
      8.47445      5.87857      4.75240        -0.002061      0.000169     -0.002212
     11.02215      4.39983      4.75089         0.003270      0.004071     -0.000042
     11.03213      7.34197      4.76950        -0.001597     -0.001356     -0.000379
     10.18310     17.62786      7.16568         0.000455      0.005466      0.003350
      2.54752      1.46653      7.16935        -0.001249      0.001166      0.002026
      5.08751      2.93598      7.17031         0.002283     -0.000358     -0.002549
     15.26944     17.63254      7.16852         0.001225     -0.000966      0.000743
      7.63213      1.46568      7.16698        -0.000190      0.001331     -0.000979
     10.17202      2.92667      7.17385         0.001000     -0.001525      0.001049
      2.55070      4.40073      7.17155         0.003184      0.001863     -0.001976
      5.08869      5.87482      7.17081        -0.002469     -0.000889     -0.000587
      7.61982      7.33983      7.17152        -0.000971      0.000898     -0.002076
      7.62390      4.39965      7.17257        -0.001350     -0.000654     -0.000147
     10.15163      5.85300      7.15298         0.001892     -0.002246      0.000872
     12.71101      7.30160      7.18031        -0.002369      0.002839     -0.004981
     25.45059      8.81634      0.00000         0.014563     -0.002131     -0.012772
      7.63518     10.28573      0.00000         0.003961     -0.004615     -0.013108
     10.18024     11.75512      0.00000        -0.004146     -0.000317     -0.015433
     10.18024      8.81634      0.00000        -0.003592     -0.002366     -0.022260
     12.72529     10.28573      0.00000         0.004026      0.005538     -0.023020
     15.27035     11.75512      0.00000        -0.001791      0.000318     -0.016332
     27.99565     13.22451      0.00000         0.000306     -0.006028     -0.012229
     10.18024     14.69390      0.00000         0.003141     -0.006111     -0.014696
     12.72529     16.16330      0.00000         0.005225     -0.003017     -0.017285
     12.72529     13.22451      0.00000         0.001733     -0.001333     -0.012513
     15.27035     14.69390      0.00000        -0.001720     -0.009341     -0.009409
     17.81541     16.16330      0.00000        -0.000725     -0.009101     -0.008125
[...]
     12.15497      8.67273     10.01702         0.001392      0.021575      0.005922
     12.62382      7.33871      9.88635        -0.026648      0.043479      0.001420
     13.99430      7.04016     10.10141        -0.002383     -0.020728      0.033854
     14.39628      5.73221     10.18880         0.011155      0.023839      0.002506
     10.81038      8.92741     10.09362         0.030183      0.009238     -0.000327
     15.17875     10.21818     10.34585         0.013345      0.017271     -0.001765
     12.76132     10.75398     10.20317         0.000638     -0.020090     -0.007977
     11.89931      6.52196      9.89850        -0.001327     -0.016294      0.006447
     15.38604      5.52470     10.09459        -0.009807     -0.004369     -0.000479
     13.77840      5.01386      9.81773         0.010483      0.010898      0.008143
     10.48374      9.87453      9.92171         0.003215     -0.044077      0.000192
     10.15401      8.18999      9.85401        -0.007589      0.000606      0.007139
     16.50160      7.21522     11.47537         0.004626      0.023746     -0.014363
     16.98374      8.68720     10.58360        -0.002443      0.003111      0.003583
     16.81426      7.14270      9.72506        -0.011242      0.022953      0.025610
    total drift:                               -0.019499      0.049437      0.299747

  FREE ENERGIE OF THE ION-ELECTRON SYSTEM (eV)
  free  energy   TOTEN  =      -720.89275891 eV

  energy  without entropy=     -720.82199643  energy(sigma->0) =     -720.85737767

[...]

  free energy =  -0.703579912064E+03  energy without entropy=  -0.703509146273E+03

[...]

 d Force = 0.1691991E-03[ 0.745E-04, 0.264E-03]  d Energy = 0.1755673E-03-0.637E-05
 d Force =-0.1478701E+00[-0.148E+00,-0.148E+00]  d Ewald  =-0.1478702E+00 0.139E-06

 Steepest descent step on ions:
 trial-energy change:   -0.000176  1 .order   -0.000169   -0.000264   -0.000074
  (g-gl).g = 0.264E-03      g.g   = 0.264E-03  gl.gl    = 0.000E+00
 g(Force)  = 0.264E-03   g(Stress)= 0.000E+00 ortho     = 0.000E+00
 gamma     =   0.00000
 trial     =   1.00000
 opt step  =   1.39305  (harmonic =   1.39305) maximal distance =0.00087660
 next E    =  -720.892943   (d E  =  -0.00018)

[...]

 d Force = 0.1459262E-04[-0.848E-07, 0.293E-04]  d Energy = 0.1547075E-04-0.878E-06
 d Force =-0.5826946E-01[-0.583E-01,-0.582E-01]  d Ewald  =-0.5826941E-01-0.548E-07

 real space projection operators:
  max/ min on nodes  :      14231.83      14222.55

[...]

 eigenvalue-minimisations  :  6999
 total energy-change (2. order) :-0.6377522E-06  (-0.3272195E-06)
 number of electron    2159.9997747 magnetization
 augmentation part      775.1196118 magnetization

[...]

 eigenvalues of (default mixing * dielectric matrix)
  average eigenvalue GAMMA=   1.0719
  1.8915  1.0756  0.2487

[...]

--------------------------------------- Iteration      4(   5)  ---------------------------------------

 eigenvalue-minimisations  :  5188
 total energy-change (2. order) : 0.1556968E-05  (-0.1304268E-06)
 number of electron    2159.9997747 magnetization
 augmentation part      775.1196118 magnetization

 DIPCOR: dipole corrections for dipol
 direction  3 min pos   154,
 dipolmoment           0.000000      0.000000     -0.567066 electrons x Angstroem
 Tr[quadrupol]   -154722.561319

 energy correction for charged system         0.000000 eV
 dipol+quadrupol energy correction           -0.004333 eV
 added-field ion interaction        -14.523471 eV  (added to PSCEN)

  free energy =  -0.703580110985E+03  energy without entropy=  -0.703509351235E+03

------------------------ aborting loop because EDIFF is reached ----------------------------------------

  Number of pair interactions contributing to vdW energy:  820158
  Edisp (eV):  -17.31293

  FORCE on cell =-STRESS in cart. coord.  units (eV):
  Direction    XX          YY          ZZ          XY          YZ          ZX
  Alpha Z  6179.65840  6179.65840  6179.65840
  Ewald  463299.94229462778.27856************  -337.91384    89.66820   264.95332
  Hartree512569.13219512115.11131************  -271.74043    46.17680   175.14142
  E(xc)   -9659.49968 -9659.52079 -9700.73839    -0.11784     0.21715     0.41045
  Local  ************************************   609.91959  -127.72743  -430.02718
  n-local  -377.27117  -378.60884  -259.15832    -0.63318    -0.00618     0.18343
  augment 12985.30228 12985.14237 13063.91831     0.09681    -0.36119    -0.08250
  Kinetic 30037.42988 30032.77879 30408.19964     0.71460    -7.61700   -10.74328
  Fock        0.00000     0.00000     0.00000     0.00000     0.00000     0.00000
  vdW       -23.94067   -23.77818   -18.14042     0.07653    -0.04379    -0.04366
  Total    -122.37851  -122.14532    -1.93594     0.40223     0.30655    -0.20801
  in kB     -27.30734   -27.25531    -0.43198     0.08975     0.06840    -0.04641

  FREE ENERGIE OF THE ION-ELECTRON SYSTEM (eV)
  free  energy   TOTEN  =      -720.89304050 eV

  energy  without entropy=     -720.82228075  energy(sigma->0) =     -720.85766062

 d Force = 0.8716905E-04[ 0.471E-04, 0.127E-03]  d Energy = 0.9055120E-04-0.338E-05
 d Force = 0.3310498E-01[ 0.330E-01, 0.332E-01]  d Ewald  = 0.3310490E-01 0.735E-07

 Conjugate gradient step on ions:
 trial-energy change:   -0.000091  1 .order   -0.000087   -0.000127   -0.000047
  (g-gl).g = 0.118E-03      g.g   = 0.118E-03  gl.gl    = 0.264E-03
 g(Force)  = 0.118E-03   g(Stress)= 0.000E+00 ortho     =-0.216E-06
 gamma     =   0.44809
 trial     =   1.07861
 opt step  =   1.71296  (harmonic =   1.71296) maximal distance =0.00084886
 next E    =  -720.893051   (d E  =  -0.00010)

 reached required accuracy - stopping structural energy minimisation