 vasp.5.4.4.18Apr17-6-g9f103f2a35 (build Jun 30 2017 19:19:18) complex

 executed on         MareNostrum4 date 2022.05.16  17:37:19

 INCAR:
 POTCAR:    PAW_PBE Pt 04Feb2005
 POTCAR:    PAW_PBE H 15Jun2001
 POTCAR:    PAW_PBE C 08Apr2002

 POTCAR:    PAW_PBE Pt 04Feb2005

 POTCAR:    PAW_PBE H 15Jun2001

 POTCAR:    PAW_PBE C 08Apr2002

 Optimization of the real space projectors (new method)

 maximal supplied QI-value         = 14.36
 optimisation between [QCUT,QGAM] = [ 10.77, 21.69] = [ 32.49,131.70] Ry
 Optimized for a Real-space Cutoff    1.46 Angstroem

   l    n(q)    QCUT    max X(q) W(low)/X(q) W(high)/X(q)  e(spline)
   2      9    10.771    66.195    0.13E-03    0.31E-03    0.27E-06
   2      9    10.771    64.643    0.13E-03    0.32E-03    0.28E-06
   0     10    10.771    95.520    0.41E-04    0.13E-03    0.15E-06
   0     10    10.771    63.403    0.40E-04    0.12E-03    0.14E-06
   1      9    10.771    19.961    0.42E-03    0.19E-03    0.28E-06
   1      9    10.771    13.289    0.35E-03    0.16E-03    0.23E-06
 Optimization of the real space projectors (new method)

[...]

   l    n(q)    QCUT    max X(q) W(low)/X(q) W(high)/X(q)  e(spline)
   0      8    10.603    19.460    0.37E-03    0.59E-03    0.23E-06
   0      8    10.603    12.209    0.35E-03    0.56E-03    0.22E-06
   1      7    10.603     4.655    0.70E-04    0.28E-03    0.29E-06
 Optimization of the real space projectors (new method)

 maximal supplied QI-value         = 25.13
 optimisation between [QCUT,QGAM] = [ 10.81, 21.61] = [ 32.71,130.83] Ry
 Optimized for a Real-space Cutoff    1.23 Angstroem

   l    n(q)    QCUT    max X(q) W(low)/X(q) W(high)/X(q)  e(spline)
   0      8    10.807   115.676    0.36E-03    0.72E-03    0.24E-06
   0      8    10.807    87.132    0.35E-03    0.71E-03    0.24E-06
   1      7    10.807     4.429    0.19E-03    0.39E-03    0.11E-06
   1      7    10.807     2.733    0.14E-03    0.28E-03    0.13E-06
  PAW_PBE Pt 04Feb2005                  :
  PAW_PBE H 15Jun2001                   :
  PAW_PBE C 08Apr2002                   :

 POSCAR: Pt  H  C
  positions in direct lattice
  velocities in cartesian coordinates
 exchange correlation table for  LEXCH =        8
   RHO(1)=    0.500       N(1)  =     2000
   RHO(2)=  100.500       N(2)  =     4000

 ion  position               nearest neighbor table
   1  0.000  0.000  0.000-   2 2.81  57 2.81 101 2.81 156 2.81 102 2.81  56 2.81 114 2.81  68 2.81
                            13 2.81
   2  0.083  0.083  0.000- 102 2.81   1 2.81  57 2.81   7 2.81  13 2.81  14 2.81  15 2.81   4 2.81
                             3 2.81
   3  0.167  0.167  0.000-  10 2.81   5 2.81  17 2.81   8 2.81   4 2.81  19 2.81  15 2.81   7 2.81
                             2 2.81
   4  0.250  0.000  0.000-   5 2.81  60 2.81  16 2.81  59 2.81   3 2.81  15 2.81  71 2.81  57 2.81
                             2 2.81
   5  0.333  0.083  0.000-   3 2.81   4 2.81  97 2.81   6 2.81  60 2.81  10 2.81  18 2.81  16 2.81
                            17 2.81
   6  0.417  0.167  0.000- 103 2.81  98 2.81   5 2.81  10 2.81  11 2.81  97 2.81  22 2.81  18 2.81
                           110 2.81
   7  1.000  0.250  0.000- 102 2.81 107 2.81   2 2.81 108 2.81  14 2.81 120 2.81  19 2.81   8 2.81
                             3 2.81
   8  0.083  0.333  0.000-  49 2.81  10 2.81   9 2.81  21 2.81   3 2.81  19 2.81  20 2.81   7 2.81
                           108 2.81
   9  0.167  0.417  0.000-  50 2.81  49 2.81  52 2.81  11 2.81   8 2.81  61 2.81  10 2.81  23 2.81
                            21 2.81
  10  0.250  0.250  0.000-   3 2.81   8 2.81  11 2.81   6 2.81   9 2.81   5 2.81  22 2.81  21 2.81
                            17 2.81
  11  0.333  0.333  0.000-  52 2.81   9 2.81  10 2.81 103 2.81  12 2.81   6 2.81  22 2.81  23 2.81
                            24 2.81
  12  0.417  0.417  0.000-  53 2.81  52 2.81  64 2.81  11 2.81 103 2.81 145 2.81  24 2.81 116 2.81
                           104 2.81
  13  0.083  0.000  0.115-  26 2.77  81 2.77  25 2.77  68 2.81  71 2.81  15 2.81 114 2.81  69 2.81
                            14 2.81  57 2.81   2 2.81   1 2.81
  14  0.000  0.167  0.115-  25 2.77  27 2.77 131 2.77  15 2.81 118 2.81  19 2.81 114 2.81 120 2.81
                            13 2.81   7 2.81   2 2.81 102 2.81
  15  0.167  0.083  0.115-  26 2.77  28 2.77  27 2.78  14 2.81  16 2.81  13 2.81  17 2.81  71 2.81
                            19 2.81   2 2.81   4 2.81   3 2.81
  16  0.333  0.000  0.115-  84 2.76  28 2.78  29 2.78  71 2.81  15 2.81   4 2.81  72 2.81  17 2.81
                            60 2.81   5 2.81  18 2.81 164 2.81
  17  0.250  0.167  0.115-  28 2.77  30 2.77  32 2.77  19 2.81  15 2.81   3 2.81  21 2.81  16 2.81
                            10 2.81   5 2.81  18 2.81  22 2.81
  18  0.417  0.083  0.115-  29 2.77  30 2.77 121 2.77 109 2.81 110 2.81 164 2.81  22 2.81  97 2.81
                             6 2.81   5 2.81  17 2.81  16 2.81
  19  0.083  0.250  0.115-  32 2.77  27 2.77  31 2.78  14 2.81  17 2.81  21 2.81 120 2.81  20 2.81
                            15 2.81   7 2.81   8 2.81   3 2.81
  20  1.000  0.417  0.115-  33 2.77  31 2.77 173 2.77 162 2.81  61 2.81 160 2.81  21 2.81 120 2.81
                            49 2.81  19 2.81 108 2.81   8 2.81
  21  0.167  0.333  0.115-  34 2.76  32 2.77  33 2.77  61 2.81  20 2.81  19 2.81   8 2.81  17 2.81
                            10 2.81   9 2.81  22 2.81  23 2.81
  22  0.333  0.250  0.115-  35 2.77  34 2.77  30 2.77  24 2.81 110 2.81  23 2.81  18 2.81  11 2.81
                             6 2.81  10 2.81  17 2.81  21 2.81
  23  0.250  0.417  0.115-  36 2.77  34 2.77  74 2.78  63 2.81  64 2.81  52 2.81  24 2.81  22 2.81
                            61 2.81  11 2.81   9 2.81  21 2.81
  24  0.417  0.333  0.115-  35 2.77 127 2.77  36 2.77  64 2.81 116 2.81  22 2.81 115 2.81  23 2.81
                           110 2.81 103 2.81  12 2.81  11 2.81
  25  1.000  0.083  0.227-  14 2.77 114 2.77  13 2.77  27 2.80 131 2.80 126 2.80  26 2.80 138 2.81
                           125 2.81  38 2.81  37 2.81  81 2.81
  26  0.167  0.000  0.227-  15 2.77  13 2.77  71 2.77  93 2.80  27 2.80  82 2.80  40 2.80  25 2.80
                            28 2.81  84 2.81  38 2.81  81 2.81
  27  0.083  0.167  0.227-  14 2.77  19 2.77  15 2.78 131 2.80  26 2.80  25 2.80  32 2.80  38 2.81
                            43 2.81  31 2.81  28 2.81  39 2.81
  28  0.250  0.084  0.227-  17 2.77  15 2.77  16 2.78  84 2.80  32 2.80  40 2.80  30 2.80  39 2.80
                            41 2.81  27 2.81  26 2.81  29 2.81
  29  0.417  0.001  0.227-  18 2.77 164 2.78  16 2.78  30 2.80 121 2.80 175 2.80  84 2.80 133 2.80
                            41 2.80  96 2.81 177 2.81  28 2.81
  30  0.333  0.167  0.227-  22 2.77  17 2.77  18 2.77  29 2.80  42 2.80  46 2.80  34 2.80  28 2.80
                            35 2.81  41 2.81  32 2.81 121 2.81
  31  1.000  0.333  0.227- 120 2.77  20 2.77  19 2.78 132 2.80  32 2.80  33 2.80 131 2.80 173 2.81
                           144 2.81  27 2.81  44 2.81  43 2.81
  32  0.166  0.250  0.227-  19 2.77  21 2.77  17 2.77  28 2.80  31 2.80  34 2.80  27 2.80  46 2.80
                            33 2.80  44 2.81  39 2.81  30 2.81
  33  0.083  0.417  0.227-  20 2.77  61 2.77  21 2.77  73 2.80 173 2.80  31 2.80  45 2.80  32 2.80
                            34 2.80  85 2.81  44 2.81  74 2.81
  34  0.250  0.333  0.227-  21 2.76  23 2.77  22 2.77  47 2.79  30 2.80  32 2.80  33 2.80  74 2.81
                            45 2.81  46 2.81  36 2.81  35 2.82
  35  0.417  0.250  0.227- 110 2.76  24 2.77  22 2.77  47 2.78 127 2.80 121 2.80  30 2.81 123 2.81
                           139 2.81  36 2.81  42 2.81  34 2.82
  36  0.333  0.417  0.227-  64 2.77  23 2.77  24 2.77  47 2.79  76 2.80  48 2.80  74 2.80  77 2.81
                            34 2.81  35 2.81 127 2.81  88 2.82
  37  1.000  0.000  0.342-  93 2.80  92 2.80 125 2.80 137 2.80 138 2.81  81 2.81 192 2.81  25 2.81
                            38 2.81
  38  0.083  0.084  0.342-  93 2.80  40 2.80  43 2.80  39 2.80 138 2.80  27 2.81  25 2.81  37 2.81
                            26 2.81
  39  0.167  0.167  0.342-  40 2.80  46 2.80  38 2.80  28 2.80  43 2.81  44 2.81  27 2.81  41 2.81
                            32 2.81
  40  0.250  0.000  0.342-  95 2.79  39 2.80  41 2.80  38 2.80  26 2.80  28 2.80  96 2.81  93 2.81
                            84 2.81
  41  0.333  0.083  0.342-  96 2.80  46 2.80  42 2.80  40 2.80  29 2.80  28 2.81  39 2.81  30 2.81
                           133 2.81
  42  0.417  0.166  0.341-  47 2.80 133 2.80  41 2.80 121 2.80  30 2.80 134 2.80 139 2.81  46 2.81
                            35 2.81
  43  1.000  0.250  0.342- 143 2.80  38 2.80 138 2.81  27 2.81 131 2.81  39 2.81  44 2.81  31 2.81
                           144 2.81
  44  0.083  0.333  0.342-  45 2.80  85 2.80  46 2.81 144 2.81  32 2.81  39 2.81  43 2.81  31 2.81
                            33 2.81
  45  0.166  0.417  0.341-  74 2.80  44 2.80  85 2.80  33 2.80  46 2.81  34 2.81  86 2.81  88 2.81
                            47 2.82
  46  0.250  0.250  0.342-  47 2.80  39 2.80  41 2.80  30 2.80  32 2.80  44 2.81  45 2.81  34 2.81
                            42 2.81
  47  0.334  0.332  0.340-  35 2.78  34 2.79  36 2.79  42 2.80  46 2.80 139 2.80  45 2.82  48 2.82
                            88 2.82
  48  0.417  0.416  0.341- 127 2.79 181 2.80 140 2.80 139 2.80  36 2.80  77 2.80  89 2.81  88 2.82
                            47 2.82
  49  0.000  0.500  0.000-   8 2.81   9 2.81  50 2.81  61 2.81  20 2.81 150 2.81 108 2.81 162 2.81
                           149 2.81
  50  0.083  0.583  0.000-   9 2.81 150 2.81  52 2.81  49 2.81  51 2.81  55 2.81  63 2.81  61 2.81
                            62 2.81
  51  0.167  0.667  0.000-  58 2.81  53 2.81  55 2.81  50 2.81  56 2.81  52 2.81  67 2.81  63 2.81
                            65 2.81
  52  0.250  0.500  0.000-  11 2.81   9 2.81  12 2.81  23 2.81  50 2.81  53 2.81  51 2.81  63 2.81
                            64 2.81
  53  0.333  0.583  0.000-  12 2.81  51 2.81  52 2.81  58 2.81  64 2.81  65 2.81  66 2.81 145 2.81
                            54 2.81
  54  0.417  0.667  0.000- 151 2.81 146 2.81 158 2.81  59 2.81 145 2.81  70 2.81  66 2.81  58 2.81
                            53 2.81
  55  0.000  0.750  0.000- 150 2.81  56 2.81 155 2.81  51 2.81  50 2.81 156 2.81  67 2.81  62 2.81
                           168 2.81
  56  0.083  0.833  0.000- 156 2.81  58 2.81  55 2.81  57 2.81  51 2.81   1 2.81  67 2.81  68 2.81
                            69 2.81
  57  0.167  0.917  0.000-   1 2.81  56 2.81   2 2.81  58 2.81  13 2.81  69 2.81  71 2.81  59 2.81
                             4 2.81
  58  0.250  0.750  0.000-  51 2.81  56 2.81  53 2.81  57 2.81  65 2.81  69 2.81  70 2.81  59 2.81
                            54 2.81
  59  0.333  0.833  0.000- 151 2.81  60 2.81  72 2.81  54 2.81   4 2.81  70 2.81  71 2.81  57 2.81
                            58 2.81
  60  0.417  0.917  0.000- 152 2.81  97 2.81   4 2.81  59 2.81   5 2.81 151 2.81 164 2.81  16 2.81
                            72 2.81
  61  0.083  0.500  0.115-  33 2.77  73 2.77  74 2.78  21 2.81  20 2.81 162 2.81  49 2.81   9 2.81
[...]
   0.603E+01 0.277E+02 0.786E+03   -.602E+01 -.277E+02 -.786E+03   0.976E-03 0.597E-02 -.452E+00   -.151E-01 -.199E-01 0.103E+00
   0.600E+01 -.770E+01 -.677E+03   -.599E+01 0.773E+01 0.677E+03   -.101E-02 -.188E-01 0.437E+00   -.125E-01 -.148E-01 0.421E-01
   0.170E+02 -.389E+02 -.662E+03   -.170E+02 0.389E+02 0.661E+03   0.194E-02 -.105E-01 0.439E+00   0.916E-03 0.468E-02 0.525E-01
   0.103E+02 0.107E+01 -.675E+03   -.103E+02 -.104E+01 0.674E+03   0.187E-01 -.283E-02 0.426E+00   0.293E-02 -.288E-01 0.515E-01
   0.145E+02 -.173E+02 -.663E+03   -.145E+02 0.173E+02 0.663E+03   0.147E-01 -.188E-01 0.433E+00   0.474E-02 -.733E-02 0.575E-01
   -.205E+01 -.272E+02 -.649E+03   0.210E+01 0.273E+02 0.648E+03   -.334E-01 -.473E-01 0.430E+00   -.177E-01 -.185E-02 0.609E-01
   0.162E+02 0.173E+02 -.650E+03   -.162E+02 -.173E+02 0.649E+03   0.934E-02 0.386E-02 0.428E+00   -.596E-03 0.381E-02 0.574E-01
   0.350E+01 0.244E+02 -.664E+03   -.353E+01 -.243E+02 0.663E+03   0.105E-01 -.119E-01 0.425E+00   0.114E-01 -.409E-01 0.638E-01
   0.246E+02 0.175E+02 -.658E+03   -.247E+02 -.175E+02 0.658E+03   0.347E-01 -.637E-02 0.439E+00   0.205E-01 -.310E-01 0.597E-01
   0.302E+02 0.176E+02 -.639E+03   -.303E+02 -.176E+02 0.639E+03   0.259E-01 -.806E-02 0.456E+00   0.279E-01 -.283E-01 0.597E-01
   0.372E+02 0.337E+02 -.613E+03   -.372E+02 -.337E+02 0.613E+03   0.264E-01 -.103E-01 0.402E+00   0.236E-01 -.286E-01 0.526E-01
   0.713E+01 0.495E+02 -.617E+03   -.709E+01 -.495E+02 0.616E+03   -.307E-01 0.419E-02 0.449E+00   -.563E-02 0.767E-02 0.516E-01
   0.261E+02 0.379E+02 -.569E+03   -.261E+02 -.378E+02 0.568E+03   0.866E-03 -.608E-01 0.379E+00   0.516E-03 -.372E-01 0.528E-01
   0.188E+02 -.401E+02 -.210E+04   -.188E+02 0.401E+02 0.210E+04   -.765E-02 0.763E-02 0.118E+01   -.139E-01 -.356E-02 -.118E-01
   0.184E+02 -.266E+02 -.210E+04   -.184E+02 0.266E+02 0.210E+04   -.265E-02 -.427E-02 0.118E+01   0.524E-02 -.986E-02 -.174E-02
   0.319E+02 0.480E+01 -.209E+04   -.319E+02 -.479E+01 0.209E+04   -.246E-02 0.141E-01 0.117E+01   0.988E-02 -.195E-01 0.149E-02
   0.242E+02 -.744E+02 -.207E+04   -.242E+02 0.744E+02 0.207E+04   0.463E-02 0.432E-02 0.115E+01   0.101E-01 0.431E-02 -.229E-02
   0.205E+02 -.142E+02 -.208E+04   -.204E+02 0.142E+02 0.208E+04   0.813E-02 0.135E-01 0.116E+01   -.102E-01 -.435E-02 -.266E-02
   0.103E+02 0.692E+02 -.205E+04   -.103E+02 -.693E+02 0.205E+04   0.119E-01 0.853E-01 0.116E+01   -.101E-01 0.204E-02 -.111E-01
   0.182E+01 0.322E+02 -.210E+04   -.184E+01 -.321E+02 0.210E+04   0.992E-02 0.207E-02 0.117E+01   0.954E-02 -.291E-01 0.970E-02
   0.481E+02 0.413E+02 -.207E+04   -.481E+02 -.412E+02 0.207E+04   -.342E-02 -.928E-02 0.115E+01   0.120E-01 -.308E-01 0.127E-01
   0.119E+03 0.429E+02 -.196E+04   -.119E+03 -.429E+02 0.196E+04   0.915E-01 -.283E-01 0.114E+01   0.119E-01 -.225E-01 0.159E-02
   0.658E+02 0.658E+02 -.204E+04   -.659E+02 -.659E+02 0.204E+04   0.526E-01 0.361E-01 0.115E+01   0.255E-02 -.215E-01 -.917E-02
   0.492E+02 0.123E+03 -.189E+04   -.492E+02 -.123E+03 0.189E+04   0.126E-01 0.222E+00 0.176E+01   0.218E-02 -.185E-01 -.207E-01
   -.146E+02 0.130E+03 -.185E+04   0.148E+02 -.130E+03 0.184E+04   -.168E+00 0.131E+00 0.119E+01   -.148E-01 -.236E-01 -.154E-01
   0.574E+01 0.547E+01 0.215E+04   -.574E+01 -.547E+01 -.215E+04   -.226E-02 0.149E-02 -.119E+01   0.461E-02 -.703E-02 -.183E-02
   0.176E+02 -.466E+01 0.214E+04   -.175E+02 0.465E+01 -.214E+04   -.886E-02 0.337E-02 -.120E+01   -.198E-01 -.254E-02 0.827E-02
   0.209E+02 -.158E+02 0.214E+04   -.208E+02 0.158E+02 -.214E+04   -.130E-01 0.464E-02 -.118E+01   -.180E-01 0.178E-01 0.105E-01
   0.196E+02 0.585E+01 0.214E+04   -.195E+02 -.583E+01 -.214E+04   -.567E-02 0.118E-02 -.117E+01   -.225E-01 -.179E-01 0.200E-01
   0.126E+02 -.250E+01 0.214E+04   -.126E+02 0.249E+01 -.214E+04   -.404E-02 -.230E-02 -.119E+01   -.734E-02 0.352E-02 0.131E-01
   0.185E-01 -.124E+02 0.214E+04   -.362E-01 0.123E+02 -.213E+04   0.618E-02 0.114E-02 -.116E+01   0.209E-02 0.271E-01 0.659E-02
   0.123E+02 -.168E+02 0.215E+04   -.122E+02 0.168E+02 -.215E+04   -.134E-01 0.175E-02 -.120E+01   -.134E-01 0.191E-01 0.149E-01
   0.154E+02 -.243E+02 0.215E+04   -.153E+02 0.243E+02 -.214E+04   -.886E-02 0.437E-02 -.118E+01   -.500E-02 0.402E-01 0.193E-01
   0.117E+02 -.268E+02 0.215E+04   -.117E+02 0.268E+02 -.215E+04   -.119E-02 -.108E-02 -.119E+01   0.314E-03 0.446E-01 0.202E-01
   0.148E+02 -.256E+02 0.214E+04   -.148E+02 0.256E+02 -.214E+04   -.141E-01 0.301E-02 -.120E+01   -.194E-02 0.400E-01 0.115E-01
   0.444E+01 -.294E+02 0.214E+04   -.445E+01 0.293E+02 -.214E+04   0.148E-02 0.180E-01 -.119E+01   0.131E-02 0.462E-01 0.170E-01
   -.397E+01 -.231E+02 0.214E+04   0.397E+01 0.231E+02 -.214E+04   0.432E-02 0.131E-01 -.118E+01   -.137E-01 0.329E-01 0.261E-01
[...]
   -.137E+03 0.101E+03 -.597E+03   0.136E+03 -.101E+03 0.597E+03   0.835E+00 0.135E+00 -.485E-01   0.310E-02 0.211E-02 -.104E-01
   -.885E+02 -.160E+03 -.635E+03   0.886E+02 0.161E+03 0.635E+03   -.433E-02 -.301E+00 0.135E+00   0.223E-02 0.627E-02 -.135E-01
   -.451E+02 -.359E+02 -.553E+03   0.451E+02 0.358E+02 0.553E+03   -.166E-01 0.388E-01 0.261E+00   0.106E-02 0.303E-02 -.126E-01
   -.662E+02 0.138E+03 -.611E+03   0.664E+02 -.137E+03 0.612E+03   -.163E+00 -.522E+00 -.131E+00   0.115E-03 0.759E-03 -.119E-01
   -.154E+01 -.932E+02 -.468E+03   0.177E+01 0.930E+02 0.468E+03   -.220E+00 0.245E+00 0.600E+00   0.108E-02 0.348E-02 -.103E-01
   -.169E+02 0.413E+02 -.626E+03   0.173E+02 -.419E+02 0.627E+03   -.390E+00 0.608E+00 -.469E+00   -.941E-03 0.198E-02 -.132E-01
   -.223E+02 0.789E+02 -.624E+03   0.220E+02 -.790E+02 0.624E+03   0.288E+00 0.766E-01 0.223E+00   -.899E-03 -.147E-03 -.117E-01
   0.401E+02 -.178E+03 -.675E+03   -.405E+02 0.177E+03 0.675E+03   0.506E+00 0.532E+00 -.621E+00   -.487E-03 0.617E-02 -.149E-01
   0.386E+02 -.465E+01 -.584E+03   -.386E+02 0.455E+01 0.584E+03   -.665E-01 0.109E+00 0.104E-01   -.178E-02 -.403E-03 -.134E-01
   -.869E+01 0.118E+03 -.622E+03   0.864E+01 -.118E+03 0.621E+03   0.592E-01 -.429E+00 0.396E+00   -.220E-02 -.304E-02 -.123E-01
   0.119E+03 -.162E+03 -.578E+03   -.118E+03 0.162E+03 0.578E+03   -.181E+00 0.215E+00 0.191E+00   -.261E-02 0.303E-02 -.117E-01
   0.781E+02 0.404E+02 -.624E+03   -.779E+02 -.402E+02 0.624E+03   -.207E+00 -.305E+00 -.404E+00   -.204E-02 -.331E-02 -.144E-01
   0.660E+02 0.187E+03 -.679E+03   -.660E+02 -.186E+03 0.678E+03   0.369E-02 -.438E+00 0.214E+00   -.165E-02 -.589E-02 -.145E-01
   0.185E+03 -.397E+02 -.608E+03   -.185E+03 0.399E+02 0.608E+03   -.140E+00 -.258E+00 0.261E+00   -.308E-02 -.113E-02 -.109E-01
   0.722E+00 -.199E+01 -.599E+01   0.540E-11 -.468E-11 0.124E-10   -.700E+00 0.193E+01 0.542E+00   -.918E-02 0.287E-01 0.679E+01

 POSITION                                       TOTAL-FORCE (eV/Angst)
      0.00000      0.00000      0.00000         0.001387      0.000705      0.009169
      2.42992      1.40291      0.00000         0.000739     -0.000025      0.013453
      4.85984      2.80583      0.00000        -0.002630     -0.001596      0.010650
      4.85984      0.00000      0.00000        -0.005635     -0.007850      0.009962
      7.28975      1.40291      0.00000        -0.009886     -0.008628      0.017774
      9.71967      2.80583      0.00000        -0.004104     -0.003097      0.012890
     21.86926      4.20874      0.00000        -0.005178     -0.001396      0.019360
      4.85984      5.61166      0.00000         0.011679      0.002357      0.015005
      7.28975      7.01457      0.00000        -0.000171     -0.002253      0.013527
      7.28975      4.20874      0.00000        -0.002633     -0.004978      0.015773
      9.71967      5.61166      0.00000         0.003944     -0.004605      0.009980
     12.14959      7.01457      0.00000        -0.001622     -0.007124      0.009016
      1.61995      0.00000      2.29095        -0.003926      0.007340      0.000378
      1.61995      2.80583      2.29095         0.000170     -0.012186     -0.006939
      4.04986      1.40291      2.29095        -0.001001      0.007802     -0.001926
      6.47978      0.00000      2.29095         0.015406      0.024698     -0.017934
      6.47978      2.80583      2.29095         0.003707      0.013779     -0.005314
      8.90970      1.40291      2.29095         0.007141      0.016077     -0.021442
      4.04986      4.20874      2.29095        -0.005838     -0.000918     -0.005655
     23.48921      7.01457      2.29095        -0.015120      0.011053     -0.008281
      6.47978      5.61166      2.29095        -0.000752     -0.001367      0.001728
      8.90970      4.20874      2.29095        -0.002985      0.006462     -0.038528
      8.90970      7.01457      2.29095         0.000862      0.018489     -0.009257
     11.33962      5.61166      2.29095        -0.000329      0.012957     -0.047316
     20.24931      1.40495      4.54136        -0.001313     -0.009650      0.003871
      3.23990      0.00431      4.54047        -0.002651     -0.000604     -0.000795
      3.23754      2.80809      4.54194         0.006162      0.000291     -0.000575
      5.66969      1.40880      4.54089         0.004359      0.005296     -0.002196
      8.10552      0.00855      4.54105        -0.003713     -0.007382      0.000912
      8.10026      2.80828      4.54059         0.003529      0.001174     -0.000372
     22.67748      5.61397      4.54230        -0.002087     -0.001988      0.008488
      5.66545      4.21120      4.54076        -0.002818     -0.003539      0.002446
      5.66606      7.01609      4.53998        -0.002853     -0.000131     -0.002592
      8.09413      5.61172      4.53554        -0.001963     -0.002058     -0.003929
     10.53381      4.20542      4.53131         0.002402     -0.007613     -0.002036
     10.52829      7.01895      4.53716        -0.001807      0.005392      0.002006
     19.43810      0.00166      6.83250        -0.003356      0.002007     -0.004335
      2.42899      1.40611      6.83311         0.000313     -0.001709      0.000177
      4.85814      2.80722      6.83284         0.002086      0.000200     -0.002233
      4.85873      0.00703      6.83056         0.002050     -0.001006      0.005868
      7.28883      1.40430      6.83234         0.001091      0.002184      0.001421
      9.71948      2.79800      6.82742         0.000526      0.000870      0.000871
     21.86798      4.21013      6.83309         0.005610      0.001516     -0.005649
      4.85842      5.61274      6.83311        -0.001877      0.000890     -0.000620
      7.28461      7.01246      6.82965        -0.000930     -0.001168      0.007069
      7.28494      4.20529      6.83018        -0.000016     -0.002677     -0.002461
      9.71649      5.59352      6.79965         0.003528     -0.001043      0.002065
     12.15664      7.00377      6.81790        -0.002020     -0.000713     -0.003420
      4.85984      8.41748      0.00000        -0.003996     -0.000722     -0.000941
      7.28975      9.82040      0.00000         0.001915     -0.007034      0.014101
      9.71967     11.22331      0.00000         0.012931      0.002256      0.004895
      9.71967      8.41748      0.00000         0.003793      0.003374      0.005402
     12.14959      9.82040      0.00000        -0.000823     -0.007444      0.011369
     14.57951     11.22331      0.00000        -0.009463      0.000708     -0.004261
      7.28975     12.62622      0.00000         0.011620      0.004181      0.019848
      9.71967     14.02914      0.00000         0.009783     -0.000662      0.008467
     12.14959     15.43205      0.00000        -0.001303      0.001888      0.009078
     12.14959     12.62622      0.00000         0.009615      0.009013      0.005364
     14.57951     14.02914      0.00000         0.000522     -0.005783      0.003327
     17.00943     15.43205      0.00000        -0.009630     -0.015501      0.011237
[...]
     19.25925     11.34211     10.01125         0.004542     -0.025407     -0.029863
     18.33824     10.35509     10.73221        -0.033816      0.012185      0.010344
     19.15273     12.80130     10.43179         0.006277      0.009796     -0.005730
     16.83881     10.75298     10.75164         0.026709      0.010218      0.012539
     15.95172      9.55952     10.35835         0.022809      0.001512     -0.019015
     16.46236     11.33975     12.11725        -0.013903      0.018284     -0.020004
     14.46150      9.82745     10.00708         0.005316      0.006355      0.015011
     13.44460      9.21357     10.98088         0.012437     -0.013549     -0.002805
     14.13509     11.28534      9.70265         0.014000     -0.019597     -0.003278
     11.99121      9.25240     10.44304        -0.019649      0.011088     -0.002197
     11.28843      7.91326     10.71380        -0.001840     -0.009092     -0.006844
     11.21523     10.46900     10.96505        -0.006429     -0.025841     -0.006188
      9.90754      7.66037     10.08983        -0.020640     -0.018659      0.008016
      9.64020      6.15532     10.03060        -0.008318     -0.000246     -0.005682
      8.73021      8.35360     10.77639         0.011541     -0.011167     -0.008671
    total drift:                                0.012105     -0.035062      1.337761

  FREE ENERGIE OF THE ION-ELECTRON SYSTEM (eV)
  free  energy   TOTEN  =     -1388.31904327 eV

  energy  without entropy=    -1388.08760184  energy(sigma->0) =    -1388.20332256

[...]

  free energy =  -0.136534793074E+04  energy without entropy=  -0.136511648394E+04

[...]

 eigenvalue-minimisations  :  7700
 total energy-change (2. order) : 0.9999552E-05  (-0.2206704E-05)
 number of electron    2012.0000641 magnetization
 augmentation part      598.6351576 magnetization

[...]

 eigenvalues of (default mixing * dielectric matrix)
  average eigenvalue GAMMA=   0.4909
  2.2098  0.8595  0.3047  0.1919  0.1519  0.0627  0.0623  0.0842

[...]

--------------------------------------- Iteration      2(  10)  ---------------------------------------

 eigenvalue-minimisations  :  1947
 total energy-change (2. order) :-0.6391056E-05  (-0.1716397E-07)
 number of electron    2012.0000641 magnetization
 augmentation part      598.6351801 magnetization

 DIPCOR: dipole corrections for dipol
 direction  3 min pos   159,
 dipolmoment           0.000000      0.000000     -0.733624 electrons x Angstroem
 Tr[quadrupol]   -132604.649724

 energy correction for charged system         0.000000 eV
 dipol+quadrupol energy correction           -0.007825 eV
 added-field ion interaction        -38.127229 eV  (added to PSCEN)

  free energy =  -0.136534827747E+04  energy without entropy=  -0.136511684877E+04

------------------------ aborting loop because EDIFF is reached ----------------------------------------

  Number of pair interactions contributing to vdW energy: 1166997
  Edisp (eV):  -22.97148

  FORCE on cell =-STRESS in cart. coord.  units (eV):
  Direction    XX          YY          ZZ          XY          YZ          ZX
  Alpha Z  5729.07738  5729.07738  5729.07738
  Ewald  439379.51552435928.04739************  1678.91747   221.45669   -70.04188
  Hartree476313.47158473124.30644************  1530.21623   185.32024   -45.78117
  E(xc)   -8815.21608 -8815.70540 -8869.15434     0.22419     0.05043    -0.04816
  Local  ************************964285.96125 -3209.85194  -409.89304   118.24211
  n-local   710.00525   710.08016   591.59246     0.46931     0.04138    -0.20133
  augment 10019.99338 10020.06008 10296.35783    -0.30414     0.20673    -0.03599
  Kinetic 28923.41824 28923.90666 29643.08132     0.86612     2.64247    -1.90628
  Fock        0.00000     0.00000     0.00000     0.00000     0.00000     0.00000
  vdW       -32.03986   -31.64476   -24.91010    -0.48669    -0.10075     0.09030
  Total    -214.15484  -213.97118    -3.03799     0.05054    -0.27585     0.31760
  in kB     -52.42213   -52.37717    -0.74366     0.01237    -0.06752     0.07774

  FREE ENERGIE OF THE ION-ELECTRON SYSTEM (eV)
  free  energy   TOTEN  =     -1388.31975490 eV

  energy  without entropy=    -1388.08832620  energy(sigma->0) =    -1388.20404055

 d Force = 0.1782831E-03[ 0.835E-04, 0.273E-03]  d Energy = 0.7116286E-03-0.533E-03
 d Force =-0.9015939E+00[-0.902E+00,-0.901E+00]  d Ewald  =-0.9015921E+00-0.179E-05

 Steepest descent step on ions:
 trial-energy change:   -0.000712  1 .order   -0.000178   -0.000273   -0.000084
  (g-gl).g = 0.273E-03      g.g   = 0.273E-03  gl.gl    = 0.000E+00
 g(Force)  = 0.273E-03   g(Stress)= 0.000E+00 ortho     = 0.000E+00
 gamma     =   0.00000
 trial     =   1.00000
 opt step  =   1.02409  (harmonic =   1.44053) maximal distance =0.00039587
 next E    = -1388.319756   (d E  =  -0.00071)

 reached required accuracy - stopping structural energy minimisation