 vasp.5.3.5 31Mar14 (build May 07 2014 16:01:45) complex

 executed on             LinuxIFC date 2018.07.19  18:49:08

 INCAR:
 POTCAR:    PAW_PBE Au 04Oct2007

 POTCAR:    PAW_PBE Au 04Oct2007
   VRHFIN =Au: s1d10

   TITEL  = PAW_PBE Au 04Oct2007
   POMASS =  196.966; ZVAL   =   11.000    mass and valenz
   ENMAX  =  229.943; ENMIN  =  172.457 eV

 Optimization of the real space projectors (new method)

 maximal supplied QI-value         = 15.12
 optimisation between [QCUT,QGAM] = [ 10.73, 21.62] = [ 32.26,130.87] Ry
 Optimized for a Real-space Cutoff    1.42 Angstroem

   l    n(q)    QCUT    max X(q) W(low)/X(q) W(high)/X(q)  e(spline)
   2      8    10.734    60.898    0.15E-03    0.34E-03    0.26E-06
   2      8    10.734    58.894    0.16E-03    0.35E-03    0.27E-06
   0      9    10.734   109.617    0.92E-04    0.16E-03    0.12E-06
   0      9    10.734    75.026    0.89E-04    0.15E-03    0.11E-06
   1      9    10.734    16.344    0.25E-03    0.88E-04    0.14E-06
   1      9    10.734    10.160    0.20E-03    0.77E-04    0.11E-06
  PAW_PBE Au 04Oct2007                  :

 POSCAR: Au_bulk\(1\1\1)
  positions in direct lattice
  velocities in cartesian coordinates
 exchange correlation table for  LEXCH =        8
   RHO(1)=    0.500       N(1)  =     2000
   RHO(2)=  100.500       N(2)  =     4000

 VTST: version 3.1, (03/28/14)

 CHAIN: initializing optimizer

 OPT: Using VASP Conjugate-Gradient optimizer
 CHAIN: Read ICHAIN            0

 POSCAR: Au_bulk\(1\1\1)
  positions in direct lattice
  velocities in cartesian coordinates

 ion  position               nearest neighbor table
   1  0.000  0.000  0.000-   3 2.90   7 2.90  11 2.90  31 2.90  25 2.90   9 2.90  26 2.90  32 2.90
                             2 2.90
   2  0.167  0.083  0.107-  39 2.84  41 2.84  33 2.84  32 2.90   4 2.90   8 2.90  12 2.90  10 2.90
                            26 2.90   9 2.90  11 2.90   1 2.90
   3  0.000  0.250  0.000-   1 2.90   5 2.90  13 2.90  25 2.90  11 2.90  27 2.90  28 2.90  26 2.90
                             4 2.90
   4  0.167  0.333  0.107-  33 2.84  43 2.84  35 2.84  26 2.90   2 2.90   6 2.90  14 2.90  28 2.90
                            12 2.90  11 2.90  13 2.90   3 2.90
   5  0.000  0.500  0.000-   3 2.90   7 2.90  15 2.90  27 2.90  13 2.90  29 2.90  30 2.90  28 2.90
                             6 2.90
   6  0.167  0.583  0.107-  35 2.84  45 2.84  37 2.84  28 2.90   4 2.90   8 2.90  16 2.90  30 2.90
                            14 2.90  13 2.90  15 2.90   5 2.90
   7  0.000  0.750  0.000-   1 2.90   5 2.90   9 2.90  29 2.90  15 2.90  31 2.90  32 2.90  30 2.90
                             8 2.90
   8  0.167  0.833  0.107-  37 2.84  47 2.84  39 2.84  30 2.90   2 2.90   6 2.90  10 2.90  32 2.90
                            16 2.90  15 2.90   9 2.90   7 2.90
   9  0.250  0.000  0.000-   7 2.90  11 2.90  15 2.90  19 2.90  17 2.90   1 2.90   2 2.90   8 2.90
                            10 2.90
  10  0.417  0.083  0.107-  47 2.84  49 2.84  41 2.84  20 2.90   8 2.90  12 2.90  16 2.90   2 2.90
                            18 2.90  17 2.90  19 2.90   9 2.90
  11  0.250  0.250  0.000-   1 2.90   9 2.90  13 2.90  21 2.90  19 2.90   3 2.90   4 2.90   2 2.90
                            12 2.90
  12  0.417  0.333  0.107-  41 2.84  51 2.84  43 2.84  22 2.90   2 2.90  10 2.90  14 2.90   4 2.90
                            20 2.90  19 2.90  21 2.90  11 2.90
  13  0.250  0.500  0.000-   3 2.90  11 2.90  15 2.90  23 2.90  21 2.90   5 2.90   6 2.90   4 2.90
                            14 2.90
  14  0.417  0.583  0.107-  43 2.84  53 2.84  45 2.84  24 2.90   4 2.90  12 2.90  16 2.90   6 2.90
                            22 2.90  21 2.90  23 2.90  13 2.90
  15  0.250  0.750  0.000-   5 2.90   9 2.90  13 2.90  17 2.90   7 2.90  23 2.90   8 2.90   6 2.90
                            16 2.90
  16  0.417  0.833  0.107-  45 2.84  55 2.84  47 2.84  18 2.90   6 2.90  10 2.90  14 2.90  24 2.90
                             8 2.90  23 2.90  17 2.90  15 2.90
  17  0.500  0.000  0.000-  15 2.90  19 2.90  23 2.90  27 2.90  25 2.90   9 2.90  10 2.90  16 2.90
                            18 2.90
  18  0.667  0.083  0.107-  55 2.84  57 2.84  49 2.84  28 2.90  16 2.90  20 2.90  24 2.90  10 2.90
                            26 2.90  25 2.90  27 2.90  17 2.90
  19  0.500  0.250  0.000-   9 2.90  17 2.90  21 2.90  29 2.90  27 2.90  11 2.90  12 2.90  10 2.90
                            20 2.90
  20  0.667  0.333  0.107-  49 2.84  59 2.84  51 2.84  30 2.90  10 2.90  18 2.90  22 2.90  12 2.90
                            28 2.90  27 2.90  29 2.90  19 2.90
  21  0.500  0.500  0.000-  11 2.90  19 2.90  23 2.90  31 2.90  29 2.90  13 2.90  14 2.90  12 2.90
                            22 2.90
  22  0.667  0.583  0.107-  51 2.84  61 2.84  53 2.84  32 2.90  12 2.90  20 2.90  24 2.90  14 2.90
                            30 2.90  29 2.90  31 2.90  21 2.90
  23  0.500  0.750  0.000-  13 2.90  17 2.90  21 2.90  25 2.90  15 2.90  31 2.90  16 2.90  14 2.90
                            24 2.90
  24  0.667  0.833  0.107-  53 2.84  63 2.84  55 2.84  26 2.90  14 2.90  18 2.90  22 2.90  32 2.90
                            16 2.90  31 2.90  25 2.90  23 2.90
  25  0.750  0.000  0.000-   3 2.90  23 2.90  27 2.90  31 2.90  17 2.90   1 2.90  18 2.90  24 2.90
                            26 2.90
  26  0.917  0.083  0.107-  63 2.84  33 2.84  57 2.84  32 2.90   4 2.90  24 2.90  28 2.90   2 2.90
                            18 2.90   1 2.90   3 2.90  25 2.90
  27  0.750  0.250  0.000-   5 2.90  17 2.90  25 2.90  29 2.90   3 2.90  19 2.90  20 2.90  18 2.90
                            28 2.90
  28  0.917  0.333  0.107-  57 2.84  35 2.84  59 2.84  30 2.90   6 2.90  18 2.90  26 2.90  20 2.90
                             4 2.90   3 2.90   5 2.90  27 2.90
  29  0.750  0.500  0.000-   7 2.90  19 2.90  27 2.90  31 2.90   5 2.90  21 2.90  22 2.90  20 2.90
                            30 2.90
  30  0.917  0.583  0.107-  59 2.84  37 2.84  61 2.84  32 2.90   8 2.90  20 2.90  28 2.90  22 2.90
                             6 2.90   5 2.90   7 2.90  29 2.90
  31  0.750  0.750  0.000-   1 2.90  21 2.90  25 2.90  29 2.90   7 2.90  23 2.90  24 2.90  22 2.90
                            32 2.90
  32  0.917  0.833  0.107-  61 2.84  39 2.84  63 2.84  30 2.90   2 2.90  22 2.90  26 2.90  24 2.90
                             8 2.90   7 2.90   1 2.90  31 2.90
  33  0.083  0.167  0.211-   4 2.84  26 2.84   2 2.84  35 2.90  39 2.90  43 2.90  63 2.90  57 2.90
                            41 2.90  36 2.92  44 2.92  34 2.92
  34  0.000  0.000  0.319-  36 2.90  40 2.90  44 2.90  64 2.90  58 2.90  42 2.90  39 2.92  63 2.92
                            33 2.92
  35  0.083  0.417  0.211-   6 2.84  28 2.84   4 2.84  33 2.90  37 2.90  45 2.90  57 2.90  43 2.90
                            59 2.90  38 2.92  46 2.92  36 2.92
  36  0.000  0.250  0.319-  34 2.90  38 2.90  46 2.90  58 2.90  44 2.90  60 2.90  33 2.92  57 2.92
                            35 2.92
  37  0.083  0.667  0.211-   8 2.84  30 2.84   6 2.84  35 2.90  39 2.90  47 2.90  59 2.90  45 2.90
                            61 2.90  40 2.92  48 2.92  38 2.92
  38  0.000  0.500  0.319-  36 2.90  40 2.90  48 2.90  60 2.90  46 2.90  62 2.90  35 2.92  59 2.92
                            37 2.92
  39  0.083  0.917  0.211-   2 2.84  32 2.84   8 2.84  33 2.90  37 2.90  41 2.90  61 2.90  47 2.90
                            63 2.90  34 2.92  42 2.92  40 2.92
  40  0.000  0.750  0.319-  34 2.90  38 2.90  42 2.90  62 2.90  48 2.90  64 2.90  37 2.92  61 2.92
                            39 2.92
  41  0.333  0.167  0.211-  12 2.84   2 2.84  10 2.84  39 2.90  43 2.90  47 2.90  51 2.90  49 2.90
                            33 2.90  44 2.92  52 2.92  42 2.92
  42  0.250  0.000  0.319-  40 2.90  44 2.90  48 2.90  52 2.90  50 2.90  34 2.90  47 2.92  39 2.92
                            41 2.92
  43  0.333  0.417  0.211-  14 2.84   4 2.84  12 2.84  33 2.90  41 2.90  45 2.90  53 2.90  51 2.90
                            35 2.90  46 2.92  54 2.92  44 2.92
  44  0.250  0.250  0.319-  34 2.90  42 2.90  46 2.90  54 2.90  52 2.90  36 2.90  41 2.92  33 2.92
                            43 2.92
  45  0.333  0.667  0.211-  16 2.84   6 2.84  14 2.84  35 2.90  43 2.90  47 2.90  55 2.90  53 2.90
                            37 2.90  48 2.92  56 2.92  46 2.92
  46  0.250  0.500  0.319-  36 2.90  44 2.90  48 2.90  56 2.90  54 2.90  38 2.90  43 2.92  35 2.92
                            45 2.92
  47  0.333  0.917  0.211-  10 2.84   8 2.84  16 2.84  37 2.90  41 2.90  45 2.90  49 2.90  39 2.90
                            55 2.90  42 2.92  50 2.92  48 2.92
  48  0.250  0.750  0.319-  38 2.90  42 2.90  46 2.90  50 2.90  40 2.90  56 2.90  45 2.92  37 2.92
                            47 2.92
  49  0.583  0.167  0.211-  20 2.84  10 2.84  18 2.84  47 2.90  51 2.90  55 2.90  59 2.90  57 2.90
                            41 2.90  52 2.92  60 2.92  50 2.92
  50  0.500  0.000  0.319-  48 2.90  52 2.90  56 2.90  60 2.90  58 2.90  42 2.90  55 2.92  47 2.92
                            49 2.92
  51  0.583  0.417  0.211-  22 2.84  12 2.84  20 2.84  41 2.90  49 2.90  53 2.90  61 2.90  59 2.90
                            43 2.90  54 2.92  62 2.92  52 2.92
  52  0.500  0.250  0.319-  42 2.90  50 2.90  54 2.90  62 2.90  60 2.90  44 2.90  49 2.92  41 2.92
                            51 2.92
  53  0.583  0.667  0.211-  24 2.84  14 2.84  22 2.84  43 2.90  51 2.90  55 2.90  63 2.90  61 2.90
                            45 2.90  56 2.92  64 2.92  54 2.92
  54  0.500  0.500  0.319-  44 2.90  52 2.90  56 2.90  64 2.90  62 2.90  46 2.90  51 2.92  43 2.92
                            53 2.92
  55  0.583  0.917  0.211-  18 2.84  16 2.84  24 2.84  45 2.90  49 2.90  53 2.90  57 2.90  47 2.90
                            63 2.90  50 2.92  58 2.92  56 2.92
  56  0.500  0.750  0.319-  46 2.90  50 2.90  54 2.90  58 2.90  48 2.90  64 2.90  53 2.92  45 2.92
                            55 2.92
  57  0.833  0.167  0.211-  28 2.84  18 2.84  26 2.84  35 2.90  55 2.90  59 2.90  63 2.90  49 2.90
                            33 2.90  60 2.92  36 2.92  58 2.92
  58  0.750  0.000  0.319-  36 2.90  56 2.90  60 2.90  64 2.90  50 2.90  34 2.90  63 2.92  55 2.92
                            57 2.92
  59  0.833  0.417  0.211-  30 2.84  20 2.84  28 2.84  37 2.90  49 2.90  57 2.90  61 2.90  35 2.90
                            51 2.90  62 2.92  38 2.92  60 2.92
  60  0.750  0.250  0.319-  38 2.90  50 2.90  58 2.90  62 2.90  36 2.90  52 2.90  57 2.92  49 2.92
                            59 2.92
  61  0.833  0.667  0.211-  32 2.84  22 2.84  30 2.84  39 2.90  51 2.90  59 2.90  63 2.90  37 2.90
                            53 2.90  64 2.92  40 2.92  62 2.92
  62  0.750  0.500  0.319-  40 2.90  52 2.90  60 2.90  64 2.90  38 2.90  54 2.90  59 2.92  51 2.92
                            61 2.92
  63  0.833  0.917  0.211-  26 2.84  24 2.84  32 2.84  33 2.90  53 2.90  57 2.90  61 2.90  39 2.90
                            55 2.90  58 2.92  34 2.92  64 2.92
  64  0.750  0.750  0.319-  34 2.90  54 2.90  58 2.90  62 2.90  40 2.90  56 2.90  61 2.92  53 2.92
                            63 2.92

  LATTYP: Found a hexagonal cell.
 ALAT       =    11.6003999709
[...]
 total charge-density along one line

------------------------ aborting loop because EDIFF is reached ----------------------------------------

         DFTD3 V3.0 Rev 1
 Edisp (eV)  -31.51846

 E6    (eV) :   -11.9470
 E8    (eV) :   -19.5714
 % E8        : 62.10

  FORCE on cell =-STRESS in cart. coord.  units (eV):
  Direction    XX          YY          ZZ          XY          YZ          ZX
  Alpha Z  1852.11645  1852.11645  1852.11645
  Ewald  221041.03250221041.03430************     0.00155    -0.00090     0.00156
  Hartree236282.90792236282.90823************     0.00027    -0.00011     0.00019
  E(xc)   -3166.07356 -3166.07347 -3179.54242     0.00007     0.00000    -0.00001
  Local  ************************480710.48848    -0.00627     0.00065    -0.00113
  n-local   -35.44408   -59.87252   -16.84068    21.15652     0.69972     1.21116
  augment  4321.80565  4321.80965  4354.98891     0.00346     0.00005    -0.00011
  Kinetic  9788.15143  9780.51830  9883.55648     6.61056    -0.91228    -1.58056
  Fock        0.00000     0.00000     0.00000     0.00000     0.00000     0.00000
  vdW       -31.62103   -31.62104   -21.06438    -0.00001    -0.00001     0.00001
  Total     -29.89263   -29.89263     5.15321     0.00000     0.00000     0.00000
  in kB     -18.59230   -18.59230     3.20514     0.00000     0.00000     0.00000

 VOLUME and BASIS-vectors are now :
  energy-cutoff  :      450.00
  volume of cell :     2575.97
      direct lattice vectors                 reciprocal lattice vectors
    11.600399971  0.000000000  0.000000000     0.086203924  0.049769859  0.000000000
    -5.800199986 10.046241069  0.000000000     0.000000000  0.099539718  0.000000000
     0.000000000  0.000000000 22.103700638     0.000000000  0.000000000  0.045241293

  length of vectors
    11.600399971 11.600399971 22.103700638     0.099539718  0.099539718  0.045241293

 FORCES acting on ions
    electron-ion (+dipol)            ewald-force                    non-local-force                 convergence-correction
   -.769E-04 0.444E-04 0.257E+04   0.210E-03 -.121E-03 -.257E+04   -.117E-16 0.434E-17 -.332E+00   0.221E-09 -.130E-09 0.318E-02
   -.393E-02 0.226E-02 0.860E+03   -.660E-03 0.380E-03 -.859E+03   0.176E-16 -.104E-16 -.402E+00   0.147E-07 -.853E-08 0.840E-02
   -.769E-04 0.444E-04 0.257E+04   0.210E-03 -.121E-03 -.257E+04   -.618E-17 -.130E-16 -.332E+00   0.222E-09 -.130E-09 0.318E-02
   -.393E-02 0.226E-02 0.860E+03   -.660E-03 0.380E-03 -.859E+03   0.132E-16 0.564E-17 -.402E+00   0.147E-07 -.853E-08 0.840E-02
   -.769E-04 0.444E-04 0.257E+04   0.210E-03 -.121E-03 -.257E+04   0.585E-17 0.585E-17 -.332E+00   0.221E-09 -.129E-09 0.318E-02
   -.393E-02 0.226E-02 0.860E+03   -.660E-03 0.380E-03 -.859E+03   -.651E-18 -.607E-17 -.402E+00   0.147E-07 -.853E-08 0.840E-02
   -.769E-04 0.444E-04 0.257E+04   0.210E-03 -.121E-03 -.257E+04   -.922E-17 0.954E-17 -.332E+00   0.220E-09 -.129E-09 0.318E-02
   -.393E-02 0.226E-02 0.860E+03   -.660E-03 0.380E-03 -.859E+03   0.477E-17 0.000E+00 -.402E+00   0.147E-07 -.853E-08 0.840E-02
   -.769E-04 0.444E-04 0.257E+04   0.210E-03 -.121E-03 -.257E+04   -.987E-17 0.651E-17 -.332E+00   0.220E-09 -.130E-09 0.318E-02
   -.393E-02 0.226E-02 0.860E+03   -.660E-03 0.380E-03 -.859E+03   0.564E-17 -.997E-17 -.402E+00   0.147E-07 -.853E-08 0.840E-02
   -.769E-04 0.444E-04 0.257E+04   0.210E-03 -.121E-03 -.257E+04   -.651E-18 -.390E-17 -.332E+00   0.221E-09 -.129E-09 0.318E-02
   -.393E-02 0.226E-02 0.860E+03   -.660E-03 0.380E-03 -.859E+03   0.150E-16 0.520E-17 -.402E+00   0.147E-07 -.853E-08 0.840E-02
   -.769E-04 0.444E-04 0.257E+04   0.210E-03 -.121E-03 -.257E+04   -.651E-17 0.217E-17 -.332E+00   0.221E-09 -.129E-09 0.318E-02
   -.393E-02 0.226E-02 0.860E+03   -.660E-03 0.380E-03 -.859E+03   0.217E-16 -.694E-17 -.402E+00   0.147E-07 -.853E-08 0.840E-02
   -.769E-04 0.444E-04 0.257E+04   0.210E-03 -.121E-03 -.257E+04   -.423E-17 0.607E-17 -.332E+00   0.221E-09 -.129E-09 0.318E-02
   -.393E-02 0.226E-02 0.860E+03   -.660E-03 0.380E-03 -.859E+03   0.759E-17 -.867E-17 -.402E+00   0.147E-07 -.853E-08 0.840E-02
   -.769E-04 0.444E-04 0.257E+04   0.210E-03 -.121E-03 -.257E+04   -.141E-17 0.239E-17 -.332E+00   0.223E-09 -.129E-09 0.318E-02
   -.393E-02 0.226E-02 0.860E+03   -.660E-03 0.380E-03 -.859E+03   0.137E-16 -.117E-16 -.402E+00   0.147E-07 -.853E-08 0.840E-02
   -.769E-04 0.444E-04 0.257E+04   0.210E-03 -.121E-03 -.257E+04   -.564E-17 0.000E+00 -.332E+00   0.222E-09 -.127E-09 0.318E-02
   -.393E-02 0.226E-02 0.860E+03   -.660E-03 0.380E-03 -.859E+03   0.197E-16 -.260E-17 -.402E+00   0.147E-07 -.853E-08 0.840E-02
   -.769E-04 0.444E-04 0.257E+04   0.210E-03 -.121E-03 -.257E+04   0.163E-17 0.954E-17 -.332E+00   0.223E-09 -.128E-09 0.318E-02
   -.393E-02 0.226E-02 0.860E+03   -.660E-03 0.380E-03 -.859E+03   -.651E-17 0.217E-17 -.402E+00   0.147E-07 -.853E-08 0.840E-02
   -.769E-04 0.444E-04 0.257E+04   0.210E-03 -.121E-03 -.257E+04   -.629E-17 0.607E-17 -.332E+00   0.224E-09 -.129E-09 0.318E-02
   -.393E-02 0.226E-02 0.860E+03   -.660E-03 0.380E-03 -.859E+03   0.260E-17 0.130E-16 -.402E+00   0.147E-07 -.853E-08 0.840E-02
   -.769E-04 0.444E-04 0.257E+04   0.210E-03 -.121E-03 -.257E+04   -.102E-16 -.195E-17 -.332E+00   0.224E-09 -.129E-09 0.318E-02
   -.393E-02 0.226E-02 0.860E+03   -.660E-03 0.380E-03 -.859E+03   0.152E-16 -.781E-17 -.402E+00   0.147E-07 -.853E-08 0.840E-02
   -.769E-04 0.444E-04 0.257E+04   0.210E-03 -.121E-03 -.257E+04   -.108E-18 -.477E-17 -.332E+00   0.223E-09 -.128E-09 0.318E-02
   -.393E-02 0.226E-02 0.860E+03   -.660E-03 0.380E-03 -.859E+03   0.104E-16 -.737E-17 -.402E+00   0.147E-07 -.853E-08 0.840E-02
   -.769E-04 0.444E-04 0.257E+04   0.210E-03 -.121E-03 -.257E+04   0.143E-16 0.672E-17 -.332E+00   0.222E-09 -.127E-09 0.318E-02
   -.393E-02 0.226E-02 0.860E+03   -.660E-03 0.380E-03 -.859E+03   0.932E-17 -.130E-17 -.402E+00   0.147E-07 -.853E-08 0.840E-02
   -.769E-04 0.444E-04 0.257E+04   0.210E-03 -.121E-03 -.257E+04   -.672E-17 0.954E-17 -.332E+00   0.223E-09 -.128E-09 0.318E-02
   -.393E-02 0.226E-02 0.860E+03   -.660E-03 0.380E-03 -.859E+03   -.260E-17 -.781E-17 -.402E+00   0.147E-07 -.853E-08 0.840E-02
   0.394E-02 -.229E-02 -.870E+03   0.639E-03 -.370E-03 0.870E+03   -.499E-17 -.434E-18 0.546E+00   -.280E-08 0.162E-08 0.654E-02
   0.694E-04 -.406E-04 -.256E+04   -.190E-03 0.110E-03 0.256E+04   -.358E-17 -.195E-17 0.196E+00   -.921E-08 0.535E-08 -.156E-02
   0.394E-02 -.229E-02 -.870E+03   0.639E-03 -.370E-03 0.870E+03   0.976E-17 0.434E-18 0.546E+00   -.280E-08 0.162E-08 0.654E-02
   0.694E-04 -.406E-04 -.256E+04   -.190E-03 0.110E-03 0.256E+04   0.347E-17 -.694E-17 0.196E+00   -.921E-08 0.535E-08 -.156E-02
   0.394E-02 -.229E-02 -.870E+03   0.639E-03 -.370E-03 0.870E+03   0.694E-17 0.130E-16 0.546E+00   -.280E-08 0.162E-08 0.654E-02
   0.694E-04 -.406E-04 -.256E+04   -.190E-03 0.110E-03 0.256E+04   -.412E-17 0.390E-17 0.196E+00   -.921E-08 0.535E-08 -.156E-02
   0.394E-02 -.229E-02 -.870E+03   0.639E-03 -.370E-03 0.870E+03   0.178E-16 -.477E-17 0.546E+00   -.280E-08 0.162E-08 0.654E-02
   0.694E-04 -.406E-04 -.256E+04   -.190E-03 0.110E-03 0.256E+04   -.325E-18 0.585E-17 0.196E+00   -.921E-08 0.535E-08 -.156E-02
   0.394E-02 -.229E-02 -.870E+03   0.639E-03 -.370E-03 0.870E+03   -.126E-16 0.434E-17 0.546E+00   -.280E-08 0.162E-08 0.654E-02
   0.694E-04 -.406E-04 -.256E+04   -.190E-03 0.110E-03 0.256E+04   0.434E-18 -.867E-18 0.196E+00   -.921E-08 0.535E-08 -.156E-02
   0.394E-02 -.229E-02 -.870E+03   0.639E-03 -.370E-03 0.870E+03   -.954E-17 -.304E-17 0.546E+00   -.280E-08 0.162E-08 0.654E-02
   0.694E-04 -.406E-04 -.256E+04   -.190E-03 0.110E-03 0.256E+04   -.759E-18 -.195E-17 0.196E+00   -.921E-08 0.535E-08 -.156E-02
   0.394E-02 -.229E-02 -.870E+03   0.639E-03 -.370E-03 0.870E+03   -.867E-18 -.260E-17 0.546E+00   -.279E-08 0.162E-08 0.654E-02
   0.694E-04 -.406E-04 -.256E+04   -.190E-03 0.110E-03 0.256E+04   0.293E-17 0.737E-17 0.196E+00   -.921E-08 0.535E-08 -.156E-02
   0.394E-02 -.229E-02 -.870E+03   0.639E-03 -.370E-03 0.870E+03   -.304E-17 -.147E-16 0.546E+00   -.280E-08 0.162E-08 0.654E-02
   0.694E-04 -.406E-04 -.256E+04   -.190E-03 0.110E-03 0.256E+04   0.358E-17 0.412E-17 0.196E+00   -.921E-08 0.535E-08 -.156E-02
   0.394E-02 -.229E-02 -.870E+03   0.639E-03 -.370E-03 0.870E+03   0.152E-17 0.347E-17 0.546E+00   -.279E-08 0.162E-08 0.654E-02
   0.694E-04 -.406E-04 -.256E+04   -.190E-03 0.110E-03 0.256E+04   0.325E-18 0.173E-17 0.196E+00   -.921E-08 0.535E-08 -.156E-02
   0.394E-02 -.229E-02 -.870E+03   0.639E-03 -.370E-03 0.870E+03   0.173E-16 0.304E-17 0.546E+00   -.279E-08 0.162E-08 0.654E-02
   0.694E-04 -.406E-04 -.256E+04   -.190E-03 0.110E-03 0.256E+04   -.672E-17 0.130E-17 0.196E+00   -.921E-08 0.535E-08 -.156E-02
   0.394E-02 -.229E-02 -.870E+03   0.639E-03 -.370E-03 0.870E+03   0.108E-17 -.108E-16 0.546E+00   -.279E-08 0.162E-08 0.654E-02
   0.694E-04 -.406E-04 -.256E+04   -.190E-03 0.110E-03 0.256E+04   -.390E-17 0.737E-17 0.196E+00   -.921E-08 0.535E-08 -.156E-02
   0.394E-02 -.229E-02 -.870E+03   0.639E-03 -.370E-03 0.870E+03   0.781E-17 -.477E-17 0.546E+00   -.279E-08 0.162E-08 0.654E-02
   0.694E-04 -.406E-04 -.256E+04   -.190E-03 0.110E-03 0.256E+04   -.173E-17 0.128E-16 0.196E+00   -.921E-08 0.535E-08 -.156E-02
   0.394E-02 -.229E-02 -.870E+03   0.639E-03 -.370E-03 0.870E+03   -.239E-17 0.304E-17 0.546E+00   -.280E-08 0.162E-08 0.654E-02
   0.694E-04 -.406E-04 -.256E+04   -.190E-03 0.110E-03 0.256E+04   -.163E-17 0.152E-17 0.196E+00   -.921E-08 0.535E-08 -.156E-02
   0.394E-02 -.229E-02 -.870E+03   0.639E-03 -.370E-03 0.870E+03   0.113E-16 0.117E-16 0.546E+00   -.280E-08 0.162E-08 0.654E-02
   0.694E-04 -.406E-04 -.256E+04   -.190E-03 0.110E-03 0.256E+04   -.445E-17 -.282E-17 0.196E+00   -.921E-08 0.535E-08 -.156E-02
   0.394E-02 -.229E-02 -.870E+03   0.639E-03 -.370E-03 0.870E+03   0.304E-17 -.911E-17 0.546E+00   -.280E-08 0.162E-08 0.654E-02
   0.694E-04 -.406E-04 -.256E+04   -.190E-03 0.110E-03 0.256E+04   -.130E-17 0.737E-17 0.196E+00   -.921E-08 0.535E-08 -.156E-02
   0.394E-02 -.229E-02 -.870E+03   0.639E-03 -.370E-03 0.870E+03   0.759E-17 -.113E-16 0.546E+00   -.280E-08 0.162E-08 0.654E-02
   0.694E-04 -.406E-04 -.256E+04   -.190E-03 0.110E-03 0.256E+04   -.867E-18 0.128E-16 0.196E+00   -.921E-08 0.535E-08 -.156E-02
   0.368E-04 -.468E-03 -.619E+00   0.265E-12 -.797E-13 -.368E-10   0.122E-15 0.195E-16 0.133E+00   0.473E-07 -.270E-07 0.265E+00

 POSITION                                       TOTAL-FORCE (eV/Angst)
      0.00000      0.00000      0.00000        -0.000000      0.000000     -0.127454
      1.45006      0.83718      2.36797         0.000000      0.000000      0.115236
     -1.45005      2.51156      0.00000        -0.000000      0.000000     -0.127454
      0.00001      3.34874      2.36797         0.000000     -0.000000      0.115236
     -2.90010      5.02312      0.00000        -0.000000      0.000000     -0.127454
     -1.45004      5.86030      2.36797         0.000000     -0.000000      0.115236
     -4.35015      7.53468      0.00000         0.000000      0.000000     -0.127454
     -2.90009      8.37186      2.36797         0.000000     -0.000000      0.115236
      2.90010      0.00000      0.00000        -0.000000      0.000000     -0.127454
      4.35016      0.83718      2.36797         0.000000      0.000000      0.115236
      1.45005      2.51156      0.00000        -0.000000      0.000000     -0.127454
      2.90011      3.34874      2.36797         0.000000     -0.000000      0.115236
      0.00000      5.02312      0.00000        -0.000000      0.000000     -0.127454
      1.45006      5.86030      2.36797        -0.000000     -0.000000      0.115236
     -1.45005      7.53468      0.00000         0.000000      0.000000     -0.127454
      0.00001      8.37186      2.36797        -0.000000     -0.000000      0.115236
      5.80020      0.00000      0.00000        -0.000000      0.000000     -0.127454
      7.25026      0.83718      2.36797         0.000000      0.000000      0.115236
      4.35015      2.51156      0.00000        -0.000000      0.000000     -0.127454
      5.80021      3.34874      2.36797         0.000000     -0.000000      0.115236
      2.90010      5.02312      0.00000        -0.000000      0.000000     -0.127454
      4.35016      5.86030      2.36797        -0.000000     -0.000000      0.115236
      1.45005      7.53468      0.00000         0.000000      0.000000     -0.127454
      2.90011      8.37186      2.36797        -0.000000     -0.000000      0.115236
      8.70030      0.00000      0.00000        -0.000000      0.000000     -0.127454
     10.15036      0.83718      2.36797         0.000000      0.000000      0.115236
      7.25025      2.51156      0.00000        -0.000000      0.000000     -0.127454
      8.70031      3.34874      2.36797         0.000000      0.000000      0.115236
      5.80020      5.02312      0.00000        -0.000000      0.000000     -0.127454
      7.25026      5.86030      2.36797        -0.000000     -0.000000      0.115236
      4.35015      7.53468      0.00000         0.000000      0.000000     -0.127454
      5.80021      8.37186      2.36797        -0.000000     -0.000000      0.115236
     -0.00001      1.67438      4.71057        -0.000000     -0.000000      0.003613
     -0.00000      0.00000      7.11988        -0.000000      0.000000      0.008605
     -1.45006      4.18594      4.71057         0.000000     -0.000000      0.003613
     -1.45005      2.51156      7.11988        -0.000000      0.000000      0.008605
     -2.90011      6.69750      4.71057        -0.000000      0.000000      0.003613
     -2.90010      5.02312      7.11988        -0.000000      0.000000      0.008605
     -4.35016      9.20906      4.71057         0.000000      0.000000      0.003613
     -4.35015      7.53468      7.11988        -0.000000      0.000000      0.008605
      2.90009      1.67438      4.71057        -0.000000     -0.000000      0.003613
      2.90010      0.00000      7.11988        -0.000000      0.000000      0.008605
      1.45004      4.18594      4.71057        -0.000000     -0.000000      0.003613
      1.45005      2.51156      7.11988        -0.000000      0.000000      0.008605
     -0.00001      6.69750      4.71057        -0.000000      0.000000      0.003613
      0.00000      5.02312      7.11988        -0.000000      0.000000      0.008605
     -1.45006      9.20906      4.71057         0.000000      0.000000      0.003613
     -1.45005      7.53468      7.11988        -0.000000      0.000000      0.008605
      5.80019      1.67438      4.71057         0.000000      0.000000      0.003613
      5.80020      0.00000      7.11988        -0.000000      0.000000      0.008605
      4.35014      4.18594      4.71057        -0.000000     -0.000000      0.003613
      4.35015      2.51156      7.11988        -0.000000      0.000000      0.008605
      2.90009      6.69750      4.71057        -0.000000      0.000000      0.003613
      2.90010      5.02312      7.11988        -0.000000      0.000000      0.008605
      1.45004      9.20906      4.71057         0.000000      0.000000      0.003613
      1.45005      7.53468      7.11988        -0.000000      0.000000      0.008605
      8.70029      1.67438      4.71057        -0.000000      0.000000      0.003613
      8.70030      0.00000      7.11988        -0.000000      0.000000      0.008605
      7.25024      4.18594      4.71057         0.000000      0.000000      0.003613
      7.25025      2.51156      7.11988        -0.000000      0.000000      0.008605
      5.80019      6.69750      4.71057        -0.000000      0.000000      0.003613
      5.80020      5.02312      7.11988        -0.000000      0.000000      0.008605
      4.35014      9.20906      4.71057        -0.000000      0.000000      0.003613
      4.35015      7.53468      7.11988        -0.000000      0.000000      0.008605
    total drift:                                0.000037     -0.000468     -0.220675

  FREE ENERGIE OF THE ION-ELECTRON SYSTEM (eV)
  free  energy   TOTEN  =      -226.98152845 eV

  energy  without entropy=     -226.94136400  energy(sigma->0) =     -226.96814030

 d Force = 0.8792144E-02[-0.464E-02, 0.222E-01]  d Energy = 0.1230097E-01-0.351E-02
 d Force =-0.1339311E+04[-0.134E+04,-0.134E+04]  d Ewald  =-0.1339311E+04 0.712E-03

 stress matrix after NEB project (eV)
    -29.89263     -0.00000      0.00000
      0.00000    -29.89263     -0.00000
      0.00000      0.00000      5.15321
  FORCES: max atom, RMS     0.008605    0.004666
  FORCE total and by dimension    0.037331    0.008605
  Stress total and by dimension   42.587492   29.892632

 reached required accuracy - stopping structural energy minimisation