 vasp.5.4.4.18Apr17-6-g9f103f2a35 (build Jun 30 2017 19:19:18) complex

 executed on         MareNostrum4 date 2022.06.19  18:43:20

 INCAR:
 POTCAR:    PAW_PBE Au 04Oct2007
 POTCAR:    PAW_PBE O 08Apr2002
 POTCAR:    PAW_PBE C 08Apr2002
 POTCAR:    PAW_PBE N 08Apr2002
 POTCAR:    PAW_PBE H 15Jun2001
 POTCAR:    PAW_PBE Au 04Oct2007

 POTCAR:    PAW_PBE O 08Apr2002

[...]

 POTCAR:    PAW_PBE N 08Apr2002

 POTCAR:    PAW_PBE H 15Jun2001

 Optimization of the real space projectors (new method)

 maximal supplied QI-value         = 15.12
 optimisation between [QCUT,QGAM] = [ 10.73, 21.62] = [ 32.26,130.87] Ry
 Optimized for a Real-space Cutoff    1.42 Angstroem

   l    n(q)    QCUT    max X(q) W(low)/X(q) W(high)/X(q)  e(spline)
   2      8    10.734    60.898    0.15E-03    0.34E-03    0.26E-06
   2      8    10.734    58.894    0.16E-03    0.35E-03    0.27E-06
   0      9    10.734   109.617    0.92E-04    0.16E-03    0.12E-06
   0      9    10.734    75.026    0.89E-04    0.15E-03    0.11E-06
   1      9    10.734    16.344    0.25E-03    0.88E-04    0.14E-06
   1      9    10.734    10.160    0.20E-03    0.77E-04    0.11E-06
 Optimization of the real space projectors (new method)

[...]

   l    n(q)    QCUT    max X(q) W(low)/X(q) W(high)/X(q)  e(spline)
   0      8    10.807    79.467    0.34E-03    0.68E-03    0.21E-06
   0      8    10.807    66.151    0.34E-03    0.67E-03    0.21E-06
   1      7    10.807    14.030    0.45E-03    0.13E-02    0.11E-05
   1      7    10.807     9.831    0.48E-03    0.13E-02    0.11E-05
 Optimization of the real space projectors (new method)

 maximal supplied QI-value         = 34.20
 optimisation between [QCUT,QGAM] = [ 10.60, 21.55] = [ 31.48,130.03] Ry
 Optimized for a Real-space Cutoff    1.23 Angstroem

   l    n(q)    QCUT    max X(q) W(low)/X(q) W(high)/X(q)  e(spline)
   0      8    10.603    19.460    0.37E-03    0.59E-03    0.23E-06
   0      8    10.603    12.209    0.35E-03    0.56E-03    0.22E-06
   1      7    10.603     4.655    0.70E-04    0.28E-03    0.29E-06
  PAW_PBE Au 04Oct2007                  :
  PAW_PBE O 08Apr2002                   :
  PAW_PBE C 08Apr2002                   :
  PAW_PBE N 08Apr2002                   :
  PAW_PBE H 15Jun2001                   :

 POSCAR: Au  O  C  N  H
  positions in direct lattice
  velocities in cartesian coordinates
 exchange correlation table for  LEXCH =        8
   RHO(1)=    0.500       N(1)  =     2000
   RHO(2)=  100.500       N(2)  =     4000

 ion  position               nearest neighbor table
   1  0.000  0.000  0.000- 102 2.94  57 2.94  13 2.94 101 2.94   2 2.94 156 2.94  56 2.94  68 2.94
                           114 2.94
   2  0.083  0.083  0.000-   3 2.94   7 2.94   4 2.94 102 2.94  14 2.94  15 2.94   1 2.94  57 2.94
                            13 2.94
   3  0.167  0.167  0.000-   2 2.94   4 2.94   7 2.94  15 2.94   5 2.94  19 2.94  10 2.94   8 2.94
                            17 2.94
   4  0.250  0.000  0.000-   3 2.94   2 2.94  15 2.94  71 2.94  57 2.94  60 2.94   5 2.94  59 2.94
                            16 2.94
   5  0.333  0.083  0.000-  10 2.94  17 2.94   3 2.94   6 2.94  18 2.94  16 2.94   4 2.94  97 2.94
                            60 2.94
   6  0.417  0.167  0.000-  98 2.94  97 2.94 103 2.94   5 2.94  18 2.94 110 2.94  10 2.94  11 2.94
                            22 2.94
   7  0.000  0.250  0.000-   2 2.94   3 2.94   8 2.94  19 2.94 102 2.94 107 2.94 108 2.94  14 2.94
                           120 2.94
   8  0.083  0.333  0.000-  49 2.94   7 2.94  20 2.94  19 2.94  10 2.94   9 2.94 108 2.94   3 2.94
                            21 2.94
   9  0.167  0.417  0.000-  50 2.94  61 2.94  52 2.94  49 2.94  23 2.94  21 2.94   8 2.94  11 2.94
                            10 2.94
  10  0.250  0.250  0.000-   5 2.94  22 2.94  17 2.94  21 2.94   3 2.94   6 2.94   8 2.94  11 2.94
                             9 2.94
  11  0.333  0.333  0.000-  52 2.94  12 2.94 103 2.94  24 2.94   9 2.94  10 2.94   6 2.94  23 2.94
                            22 2.94
  12  0.417  0.417  0.000-  52 2.94  53 2.94  11 2.94  64 2.94 145 2.94  24 2.94 104 2.94 103 2.94
                           116 2.94
  13  0.083  0.000  0.120-  81 2.90  26 2.91  25 2.91  14 2.94   1 2.94  57 2.94  68 2.94 114 2.94
                            15 2.94  71 2.94  69 2.94   2 2.94
  14  0.000  0.167  0.120-  25 2.90  27 2.91 131 2.91  13 2.94 114 2.94  15 2.94   2 2.94 102 2.94
                           118 2.94  19 2.94 120 2.94   7 2.94
  15  0.167  0.083  0.120-  28 2.91  27 2.91  26 2.91  19 2.94   3 2.94  14 2.94  17 2.94   2 2.94
                             4 2.94  16 2.94  13 2.94  71 2.94
  16  0.333  0.000  0.120-  84 2.91  29 2.91  28 2.91  17 2.94  18 2.94 164 2.94   5 2.94  60 2.94
                            15 2.94  71 2.94  72 2.94   4 2.94
  17  0.250  0.167  0.120-  30 2.89  28 2.91  32 2.91  18 2.94  16 2.94  22 2.94   5 2.94  15 2.94
                            10 2.94  19 2.94  21 2.94   3 2.94
  18  0.417  0.083  0.120- 121 2.90  30 2.90  29 2.91  17 2.94  22 2.94  16 2.94 110 2.94   6 2.94
                             5 2.94 109 2.94 164 2.94  97 2.94
  19  0.083  0.250  0.120-  32 2.90  27 2.91  31 2.91  15 2.94   7 2.94   3 2.94   8 2.94  17 2.94
                            14 2.94 120 2.94  21 2.94  20 2.94
  20  1.000  0.417  0.120-  33 2.90  31 2.91 173 2.91 162 2.94  49 2.94  61 2.94 160 2.94   8 2.94
                           120 2.94  21 2.94  19 2.94 108 2.94
  21  0.167  0.333  0.120-  34 2.88  32 2.91  33 2.91  61 2.94  22 2.94  23 2.94   9 2.94  10 2.94
                            20 2.94  19 2.94  17 2.94   8 2.94
  22  0.333  0.250  0.120-  35 2.89  34 2.90  30 2.90  18 2.94  21 2.94  17 2.94  10 2.94 110 2.94
                            24 2.94  23 2.94   6 2.94  11 2.94
  23  0.250  0.417  0.120-  36 2.90  34 2.90  74 2.91  61 2.94  63 2.94  21 2.94  64 2.94  52 2.94
                             9 2.94  24 2.94  22 2.94  11 2.94
  24  0.417  0.333  0.120-  35 2.90 127 2.91  36 2.91  64 2.94  11 2.94  12 2.94 103 2.94 115 2.94
                           116 2.94  23 2.94  22 2.94 110 2.94
  25  1.000  0.084  0.238-  14 2.90 114 2.90  13 2.91 126 2.94  27 2.94 131 2.94  81 2.94 125 2.94
                            37 2.94 138 2.94  26 2.94  38 2.95
  26  0.167  1.000  0.238-  71 2.91  13 2.91  15 2.91  82 2.93  84 2.94  28 2.94  81 2.94  93 2.94
                            27 2.94  38 2.94  25 2.94  40 2.95
  27  0.083  0.167  0.238-  14 2.91  19 2.91  15 2.91  32 2.93  28 2.94  25 2.94 131 2.94  26 2.94
                            31 2.94  38 2.94  43 2.94  39 2.95
  28  0.250  0.083  0.238-  15 2.91  17 2.91  16 2.91  30 2.93  84 2.93  27 2.94  26 2.94  32 2.94
                            29 2.94  41 2.94  39 2.95  40 2.95
  29  0.417  0.000  0.238-  18 2.91  16 2.91 164 2.91 175 2.93 121 2.94  84 2.94  30 2.94 177 2.94
                            28 2.94  96 2.94  41 2.95 133 2.95
  30  0.333  0.167  0.238-  17 2.89  22 2.90  18 2.90  42 2.93  28 2.93  32 2.94  29 2.94  35 2.94
                            34 2.94  41 2.95 121 2.95  46 2.95
  31  1.000  0.333  0.238-  20 2.91 120 2.91  19 2.91  33 2.93  32 2.93 132 2.94 131 2.94 173 2.94
                            27 2.94 144 2.94  43 2.94  44 2.95
  32  0.166  0.250  0.238-  19 2.90  21 2.91  17 2.91  34 2.93  27 2.93  31 2.93  30 2.94  28 2.94
                            33 2.94  44 2.95  46 2.95  39 2.95
  33  0.083  0.417  0.238-  20 2.90  61 2.91  21 2.91  34 2.92 173 2.93  31 2.93  74 2.93  73 2.94
                            32 2.94  45 2.94  85 2.95  44 2.95
  34  0.249  0.334  0.237-  21 2.88  47 2.90  23 2.90  22 2.90  33 2.92  32 2.93  74 2.94  30 2.94
                            46 2.96  35 2.96  36 2.96  45 2.96
  35  0.416  0.250  0.237-  22 2.89 110 2.90  24 2.90  47 2.91 139 2.93  30 2.94 121 2.94  42 2.94
                           123 2.94 127 2.94  34 2.96  36 2.96
  36  0.332  0.418  0.238-  64 2.89  23 2.90  47 2.90  24 2.91  48 2.92  76 2.93  77 2.93  74 2.94
                           127 2.95  88 2.95  34 2.96  35 2.96
  37  1.000  0.000  0.358-  92 2.93 138 2.93  38 2.94  93 2.94 137 2.94  25 2.94  81 2.94 125 2.94
                           192 2.94
  38  0.083  0.083  0.358-  93 2.93  40 2.94  39 2.94  37 2.94  43 2.94 138 2.94  26 2.94  27 2.94
                            25 2.95
  39  0.167  0.167  0.358-  41 2.94  40 2.94  38 2.94  43 2.94  46 2.94  44 2.94  28 2.95  27 2.95
                            32 2.95
  40  0.250  0.000  0.359-  41 2.93  93 2.93  38 2.94  39 2.94  95 2.94  96 2.94  28 2.95  84 2.95
                            26 2.95
  41  0.333  0.083  0.358-  42 2.92  40 2.93  39 2.94  96 2.94  46 2.94  28 2.94  29 2.95 133 2.95
                            30 2.95
  42  0.416  0.166  0.357-  41 2.92 133 2.93  30 2.93 121 2.93  46 2.94 134 2.94  35 2.94 139 2.94
                            47 2.96
  43  0.000  0.250  0.358-  39 2.94 138 2.94  44 2.94  38 2.94 143 2.94 144 2.94 131 2.94  27 2.94
                            31 2.94
  44  0.083  0.333  0.358-  46 2.93  45 2.93  43 2.94  39 2.94 144 2.94  85 2.94  31 2.95  32 2.95
                            33 2.95
  45  0.166  0.417  0.359-  47 2.93  85 2.93  44 2.93  88 2.94  86 2.94  46 2.94  33 2.94  74 2.95
                            34 2.96
  46  0.249  0.250  0.358-  47 2.93  44 2.93  39 2.94  42 2.94  41 2.94  45 2.94  32 2.95  30 2.95
                            34 2.96
  47  0.332  0.334  0.355-  34 2.90  36 2.90  35 2.91  45 2.93  46 2.93 139 2.95  42 2.96  48 2.97
                            88 2.97
  48  0.414  0.420  0.357-  77 2.91  36 2.92  89 2.92 127 2.94  88 2.95 181 2.96  47 2.97 139 2.99
                           140 3.00
  49  1.000  0.500  0.000-   8 2.94  20 2.94   9 2.94 108 2.94  50 2.94 149 2.94 150 2.94 162 2.94
                            61 2.94
  50  0.083  0.583  0.000-   9 2.94  63 2.94  61 2.94  62 2.94  51 2.94  52 2.94  49 2.94 150 2.94
                            55 2.94
  51  0.167  0.667  0.000-  56 2.94  53 2.94  58 2.94  65 2.94  50 2.94  55 2.94  52 2.94  63 2.94
                            67 2.94
  52  0.250  0.500  0.000-  12 2.94  11 2.94  53 2.94   9 2.94  23 2.94  64 2.94  50 2.94  51 2.94
                            63 2.94
  53  0.333  0.583  0.000-  12 2.94  52 2.94  51 2.94  64 2.94  65 2.94  54 2.94 145 2.94  58 2.94
                            66 2.94
  54  0.417  0.667  0.000-  59 2.94 158 2.94  66 2.94  70 2.94  53 2.94 146 2.94 151 2.94  58 2.94
                           145 2.94
  55  1.000  0.750  0.000- 156 2.94 155 2.94  56 2.94 168 2.94  67 2.94  62 2.94 150 2.94  51 2.94
                            50 2.94
  56  0.083  0.833  0.000-  58 2.94  51 2.94  57 2.94  55 2.94  67 2.94  69 2.94 156 2.94   1 2.94
                            68 2.94
  57  0.167  0.917  0.000-  58 2.94  56 2.94   1 2.94  69 2.94  13 2.94   4 2.94  59 2.94   2 2.94
                            71 2.94
  58  0.250  0.750  0.000-  56 2.94  57 2.94  51 2.94  69 2.94  59 2.94  65 2.94  54 2.94  53 2.94
                            70 2.94
  59  0.333  0.833  0.000-  54 2.94  70 2.94 151 2.94  58 2.94  72 2.94  71 2.94  60 2.94  57 2.94
                             4 2.94
[...]
   0.119E+02 -.494E+01 0.228E+04   -.119E+02 0.493E+01 -.228E+04   0.396E-02 0.933E-02 -.425E+00   -.128E-03 -.388E-03 -.641E-03
   0.221E+02 -.140E+02 0.228E+04   -.221E+02 0.140E+02 -.228E+04   0.120E-01 0.326E-02 -.387E+00   -.471E-05 -.270E-03 -.546E-03
   0.195E+02 -.236E+02 0.228E+04   -.195E+02 0.236E+02 -.228E+04   -.443E-02 0.244E-02 -.412E+00   0.201E-03 -.437E-04 -.346E-03
   0.247E+02 -.124E+02 0.228E+04   -.247E+02 0.124E+02 -.228E+04   -.745E-02 0.343E-02 -.408E+00   -.483E-05 -.113E-03 -.278E-03
   0.103E+02 -.222E+02 0.228E+04   -.103E+02 0.222E+02 -.228E+04   -.112E-01 0.101E-01 -.414E+00   0.118E-03 0.642E-04 -.139E-03
   -.578E+01 -.253E+02 0.228E+04   0.578E+01 0.253E+02 -.228E+04   -.445E-03 0.876E-02 -.438E+00   0.534E-04 0.172E-03 -.114E-03
   0.117E+02 -.120E+02 0.228E+04   -.117E+02 0.120E+02 -.228E+04   0.160E-01 0.481E-02 -.419E+00   0.154E-03 -.917E-04 -.685E-03
   0.932E+01 -.166E+02 0.228E+04   -.932E+01 0.166E+02 -.228E+04   0.312E-03 0.312E-03 -.421E+00   0.358E-03 0.139E-03 -.435E-03
   0.567E+01 -.159E+02 0.228E+04   -.565E+01 0.159E+02 -.228E+04   -.192E-01 -.470E-02 -.403E+00   0.316E-03 0.234E-03 -.270E-03
   0.930E+01 -.282E+02 0.228E+04   -.928E+01 0.281E+02 -.228E+04   -.169E-01 0.306E-02 -.395E+00   0.257E-03 0.164E-03 -.176E-03
   0.979E+00 -.223E+02 0.228E+04   -.958E+00 0.223E+02 -.228E+04   -.203E-01 0.396E-02 -.420E+00   0.561E-04 0.246E-03 -.228E-03
   0.302E+00 -.604E+01 0.228E+04   -.314E+00 0.602E+01 -.228E+04   0.112E-01 0.125E-01 -.416E+00   -.261E-03 0.170E-03 -.533E-03
[...]
   0.263E+03 -.117E+03 -.908E+03   -.267E+03 0.119E+03 0.922E+03   0.366E+01 -.196E+01 -.146E+02   -.175E-03 0.813E-04 0.209E-03
   -.155E+03 0.994E+02 -.864E+03   0.156E+03 -.101E+03 0.863E+03   -.377E+00 0.118E+01 0.125E+01   0.163E-03 0.219E-03 0.102E-03
   -.191E+02 0.901E+02 -.178E+03   0.199E+02 -.958E+02 0.178E+03   -.770E+00 0.573E+01 -.263E+00   -.114E-04 -.529E-04 0.325E-04
   -.756E+02 0.540E+02 -.180E+03   0.808E+02 -.564E+02 0.181E+03   -.524E+01 0.235E+01 -.257E+00   0.403E-04 0.112E-04 0.171E-04
   0.349E+02 -.735E+02 -.177E+03   -.354E+02 0.794E+02 0.177E+03   0.572E+00 -.595E+01 0.409E-01   -.301E-06 0.739E-04 0.247E-04
   0.965E+02 0.246E+02 -.168E+03   -.102E+03 -.287E+02 0.166E+03   0.585E+01 0.416E+01 0.175E+01   -.326E-04 -.520E-05 0.176E-04
   0.447E+02 -.881E+02 -.169E+03   -.455E+02 0.953E+02 0.167E+03   0.775E+00 -.717E+01 0.196E+01   -.105E-04 0.207E-04 0.211E-04
   -.973E+02 0.554E+02 -.171E+03   0.104E+03 -.588E+02 0.170E+03   -.661E+01 0.351E+01 0.827E+00   0.377E-04 0.330E-04 0.118E-04
   0.498E+02 0.177E+02 -.179E+03   -.522E+02 -.170E+02 0.184E+03   0.238E+01 -.764E+00 -.484E+01   -.471E-04 -.316E-04 0.865E-04
   0.699E+01 0.825E+02 -.169E+03   -.562E+01 -.878E+02 0.169E+03   -.140E+01 0.536E+01 0.388E+00   -.377E-04 -.565E-04 0.428E-04
   0.660E+02 0.192E+02 -.162E+03   -.697E+02 -.185E+02 0.158E+03   0.375E+01 -.705E+00 0.375E+01   -.477E-04 -.173E-04 -.306E-05
   -.805E+02 -.316E+02 -.162E+03   0.862E+02 0.323E+02 0.162E+03   -.575E+01 -.693E+00 0.493E+00   0.310E-04 0.247E-04 0.469E-04
   0.606E+01 -.684E+02 -.153E+03   -.871E+01 0.714E+02 0.149E+03   0.267E+01 -.297E+01 0.407E+01   -.179E-05 0.339E-04 0.140E-04
   -.180E+01 -.527E+02 -.175E+03   -.619E-01 0.545E+02 0.180E+03   0.191E+01 -.183E+01 -.506E+01   0.458E-05 0.407E-04 0.743E-04
   -.106E+02 0.116E+02 0.154E+02   -.121E-11 -.573E-11 -.367E-10   0.106E+02 -.117E+02 -.150E+02   -.818E-04 0.130E-02 -.153E+00

 POSITION                                       TOTAL-FORCE (eV/Angst)
      0.00000      0.00000      0.00000         0.000526      0.003337     -0.014232
      2.54506      1.46939      0.00000         0.002369     -0.001040     -0.013176
      5.09012      2.93878      0.00000         0.003630      0.001252     -0.011834
      5.09012      0.00000      0.00000        -0.004791      0.001459     -0.012505
      7.63518      1.46939      0.00000         0.001667      0.006024     -0.014323
     10.18024      2.93878      0.00000        -0.001760     -0.001290     -0.016848
      2.54506      4.40817      0.00000         0.003657      0.001095     -0.013572
      5.09012      5.87756      0.00000         0.005845      0.000074     -0.010318
      7.63518      7.34695      0.00000         0.004819      0.000901     -0.008995
      7.63518      4.40817      0.00000         0.001656      0.001959     -0.012485
     10.18024      5.87756      0.00000        -0.002715      0.002379     -0.017639
     12.72529      7.34695      0.00000        -0.000204      0.005127     -0.020213
      1.69671      0.00000      2.39950         0.001918      0.001934      0.018457
      1.69671      2.93878      2.39950        -0.003580      0.004155      0.017266
      4.24176      1.46939      2.39950        -0.000701     -0.001928      0.020786
      6.78682      0.00000      2.39950         0.002094      0.004898      0.019588
      6.78682      2.93878      2.39950        -0.010887     -0.005759      0.003450
      9.33188      1.46939      2.39950        -0.000252     -0.005211      0.013508
      4.24176      4.40817      2.39950        -0.008796     -0.000665      0.010556
     24.60224      7.34695      2.39950        -0.008407      0.004140      0.010168
      6.78682      5.87756      2.39950        -0.029167     -0.000655     -0.020503
      9.33188      4.40817      2.39950         0.004158     -0.006868     -0.007490
      9.33188      7.34695      2.39950         0.016625      0.004874     -0.009645
     11.87694      5.87756      2.39950         0.018624      0.006465      0.009744
     21.20736      1.47446      4.75841         0.006079     -0.002684      0.001059
     13.57428     17.63129      4.75938        -0.001089      0.014918     -0.002323
      3.39245      2.93882      4.75886        -0.000637      0.002099      0.006293
      5.93561      1.47070      4.76082         0.004137     -0.006659     -0.002068
      8.48296      0.00219      4.76152        -0.001093      0.001271     -0.003362
      8.47336      2.94006      4.75240         0.004436      0.001124      0.003750
     23.75365      5.88002      4.76076        -0.005376     -0.006569      0.001434
      5.93189      4.40874      4.75866        -0.007294     -0.005888      0.003593
      5.93057      7.35094      4.75947        -0.006411     -0.001165      0.000810
      8.46006      5.88373      4.74282         0.008164     -0.004149     -0.002526
     11.02281      4.40549      4.74598         0.000387      0.008299      0.002163
     11.02116      7.36727      4.75067         0.001110     -0.021351      0.004042
     20.36144      0.00516      7.16097        -0.005726      0.004809      0.011229
      2.54674      1.46849      7.16376        -0.002558      0.012015      0.018099
      5.08746      2.93906      7.16977         0.007218      0.003864      0.003130
      5.09023      0.00352      7.17234         0.000333     -0.005288     -0.008639
      7.63002      1.47213      7.16725        -0.003368     -0.009108      0.005908
     10.16568      2.92813      7.14253        -0.000148     -0.003190     -0.008513
      2.54533      4.40749      7.16602        -0.000737      0.002582      0.002212
      5.08870      5.87653      7.16888        -0.001702      0.007456      0.004460
      7.62113      7.35707      7.17037         0.006561     -0.002301      0.008043
      7.62745      4.41315      7.16696         0.000191     -0.005993      0.003322
     10.15392      5.89127      7.09224        -0.019659      0.006328     -0.029004
     12.70775      7.40168      7.13849        -0.005198      0.010908     -0.000357
     25.45059      8.81634      0.00000         0.007932     -0.001643     -0.012867
      7.63518     10.28573      0.00000         0.002603     -0.004151     -0.009153
     10.18024     11.75512      0.00000         0.002710     -0.000337     -0.014014
     10.18024      8.81634      0.00000        -0.002335     -0.001046     -0.015210
     12.72529     10.28573      0.00000         0.000921     -0.000845     -0.018493
     15.27035     11.75512      0.00000        -0.000951     -0.004057     -0.013750
     27.99565     13.22451      0.00000        -0.000326     -0.002811     -0.012146
     10.18024     14.69390      0.00000         0.005177     -0.001251     -0.013501
     12.72529     16.16330      0.00000         0.000815      0.000407     -0.015758
     12.72529     13.22451      0.00000        -0.000510     -0.005434     -0.012528
     15.27035     14.69390      0.00000         0.000130     -0.001191     -0.010302
     17.81541     16.16330      0.00000        -0.001761     -0.003707     -0.009058
[...]
     16.83845     11.06305     10.56347        -0.014130     -0.040839      0.068510
     10.37588      7.37587     10.28217        -0.133067     -0.182107     -0.020980
     15.19733      7.93513     10.16570         0.014911     -0.067651      0.027355
     13.24284      3.82419     10.27416        -0.001535     -0.005692      0.010010
     15.22872      5.30703     10.22289         0.023845     -0.003207      0.000897
     12.62009      8.74483     10.06065        -0.014308      0.020096      0.026456
      9.57782      6.79531     10.02854         0.071639      0.076161      0.036815
     10.28044      8.34676     10.00125        -0.012746      0.080250     -0.012228
     16.08845      7.45437     10.06008        -0.013862      0.018601      0.011174
     10.12655      4.67218     11.41276        -0.012142     -0.000842      0.007578
     10.89965      3.45080     10.35887         0.005767      0.047354      0.018549
      9.83533      4.68288      9.66047         0.020544      0.002998      0.020748
     17.92392     11.18229     10.47304        -0.008846     -0.001838      0.017015
     16.32588     11.62668      9.76926        -0.009384      0.014250      0.002850
     16.47736     11.40399     11.54533         0.015071     -0.014711     -0.033197
    total drift:                                0.025443     -0.063650      0.314593

  FREE ENERGIE OF THE ION-ELECTRON SYSTEM (eV)
  free  energy   TOTEN  =      -760.08853939 eV

  energy  without entropy=     -760.01462896  energy(sigma->0) =     -760.05158418

[...]

  free energy =  -0.742429410383E+03  energy without entropy=  -0.742355498838E+03

[...]

 d Force = 0.1018574E-02[-0.533E-03, 0.257E-02]  d Energy = 0.1035539E-02-0.170E-04
 d Force = 0.3632163E+01[ 0.363E+01, 0.364E+01]  d Ewald  = 0.3632168E+01-0.467E-05

 Steepest descent step on ions:
 trial-energy change:   -0.001036  1 .order   -0.001019   -0.002570    0.000533
  (g-gl).g = 0.257E-02      g.g   = 0.257E-02  gl.gl    = 0.000E+00
 g(Force)  = 0.257E-02   g(Stress)= 0.000E+00 ortho     = 0.000E+00
 gamma     =   0.00000
 trial     =   1.00000
 opt step  =   0.82817  (harmonic =   0.82817) maximal distance =0.00096187
 next E    =  -760.089604   (d E  =  -0.00106)

[...]

 d Force = 0.4711993E-04[ 0.260E-05, 0.916E-04]  d Energy = 0.4004165E-04 0.708E-05
 d Force =-0.6235762E+00[-0.624E+00,-0.623E+00]  d Ewald  =-0.6235763E+00 0.999E-07

[...]

 d Force = 0.5273430E-03[ 0.362E-03, 0.692E-03]  d Energy = 0.5385726E-03-0.112E-04
 d Force = 0.4657670E+01[ 0.466E+01, 0.466E+01]  d Ewald  = 0.4657672E+01-0.193E-05

 Conjugate gradient step on ions:
 trial-energy change:   -0.000539  1 .order   -0.000527   -0.000692   -0.000362
  (g-gl).g = 0.736E-03      g.g   = 0.721E-03  gl.gl    = 0.257E-02
 g(Force)  = 0.721E-03   g(Stress)= 0.000E+00 ortho     =-0.152E-04
 gamma     =   0.28649
 trial     =   0.96563
 opt step  =   2.02662  (harmonic =   2.02662) maximal distance =0.00250453
 next E    =  -760.090341   (d E  =  -0.00073)

[...]

 Conjugate gradient step on ions:
 trial-energy change:   -0.000389  1 .order   -0.000376   -0.000493   -0.000259
  (g-gl).g = 0.690E-03      g.g   = 0.699E-03  gl.gl    = 0.721E-03
 g(Force)  = 0.699E-03   g(Stress)= 0.000E+00 ortho     = 0.141E-05
 gamma     =   0.95617
 trial     =   0.70369
 opt step  =   1.48686  (harmonic =   1.48686) maximal distance =0.00205351
 next E    =  -760.090884   (d E  =  -0.00052)

[...]

 d Force =-0.7792230E-05[-0.164E-03, 0.149E-03]  d Energy = 0.3287024E-04-0.407E-04
 d Force = 0.3101881E+02[ 0.310E+02, 0.310E+02]  d Ewald  = 0.3101881E+02 0.299E-06

[...]

 d Force = 0.4311923E-04[-0.206E-07, 0.863E-04]  d Energy = 0.2277777E-04 0.203E-04
 d Force =-0.1628019E+02[-0.163E+02,-0.163E+02]  d Ewald  =-0.1628019E+02 0.530E-06

[...]

 d Force = 0.1276256E-03[ 0.901E-04, 0.165E-03]  d Energy = 0.1374896E-03-0.986E-05
 d Force =-0.3655431E+00[-0.366E+00,-0.365E+00]  d Ewald  =-0.3655426E+00-0.513E-06

[...]

 d Force = 0.5314330E-04[-0.197E-05, 0.108E-03]  d Energy = 0.6511443E-04-0.120E-04
 d Force =-0.4411433E+00[-0.442E+00,-0.440E+00]  d Ewald  =-0.4411438E+00 0.461E-06

[...]

 d Force = 0.2328213E-04[-0.571E-05, 0.523E-04]  d Energy = 0.3757838E-04-0.143E-04
 d Force = 0.3882786E+01[ 0.388E+01, 0.388E+01]  d Ewald  = 0.3882786E+01 0.516E-07

[...]

 Conjugate gradient step on ions:
 trial-energy change:   -0.000072  1 .order   -0.000060   -0.000068   -0.000053
  (g-gl).g = 0.133E-03      g.g   = 0.127E-03  gl.gl    = 0.850E-04
 g(Force)  = 0.127E-03   g(Stress)= 0.000E+00 ortho     =-0.448E-05
 gamma     =   1.56688
 trial     =   0.56561
 opt step  =   2.26246  (harmonic =   2.56397) maximal distance =0.00248547
 next E    =  -760.111896   (d E  =  -0.00015)

[...]

 real space projection operators:
  max/ min on nodes  :      14338.44      14329.71

[...]

 eigenvalue-minimisations  :  7472
 total energy-change (2. order) :-0.5933980E-05  (-0.9316308E-06)
 number of electron    2181.9997687 magnetization
 augmentation part      776.6440277 magnetization

[...]

 eigenvalues of (default mixing * dielectric matrix)
  average eigenvalue GAMMA=   1.1472
  2.1603  0.9980  0.2832

[...]

--------------------------------------- Iteration     79(   5)  ---------------------------------------

 eigenvalue-minimisations  :  7228
 total energy-change (2. order) : 0.7373717E-05  (-0.4187393E-06)
 number of electron    2181.9997687 magnetization
 augmentation part      776.6440277 magnetization

 DIPCOR: dipole corrections for dipol
 direction  3 min pos   154,
 dipolmoment           0.000000      0.000000     -0.445575 electrons x Angstroem
 Tr[quadrupol]   -157552.183480

 energy correction for charged system         0.000000 eV
 dipol+quadrupol energy correction           -0.002676 eV
 added-field ion interaction         -9.653763 eV  (added to PSCEN)

  free energy =  -0.742502863599E+03  energy without entropy=  -0.742427326620E+03

------------------------ aborting loop because EDIFF is reached ----------------------------------------

  Number of pair interactions contributing to vdW energy:  868524
  Edisp (eV):  -17.60917

  FORCE on cell =-STRESS in cart. coord.  units (eV):
  Direction    XX          YY          ZZ          XY          YZ          ZX
  Alpha Z  6270.63756  6270.63756  6270.63756
  Ewald  453657.47959453567.13458************  1384.44202   133.44116    19.20102
  Hartree503411.50532503372.86061************  1258.73384   104.95083    24.80267
  E(xc)   -9754.89391 -9755.15032 -9798.18069     0.08554     0.11884    -0.05244
  Local  ************************************ -2650.82901  -235.26952   -43.80884
  n-local  -442.54645  -440.18882  -320.72190     2.66999     0.18691     0.33427
  augment 12997.27141 12997.61960 13077.94503     0.13471    -0.08264    -0.11106
  Kinetic 30429.01388 30432.42011 30840.29068     4.84590    -3.52970    -0.22113
  Fock        0.00000     0.00000     0.00000     0.00000     0.00000     0.00000
  vdW       -23.99431   -23.96264   -18.97011    -0.14668     0.01723    -0.02200
  Total    -123.79578  -123.16731    -2.30541    -0.06369    -0.16689     0.12249
  in kB     -27.62359   -27.48335    -0.51443    -0.01421    -0.03724     0.02733

  FREE ENERGIE OF THE ION-ELECTRON SYSTEM (eV)
  free  energy   TOTEN  =      -760.11203659 eV

  energy  without entropy=     -760.03649962  energy(sigma->0) =     -760.07426811

 d Force = 0.8010885E-04[ 0.316E-04, 0.129E-03]  d Energy = 0.9680983E-04-0.167E-04
 d Force = 0.5837144E+01[ 0.584E+01, 0.584E+01]  d Ewald  = 0.5837144E+01-0.126E-07

 Conjugate gradient step on ions:
 trial-energy change:   -0.000097  1 .order   -0.000080   -0.000129   -0.000032
  (g-gl).g = 0.955E-04      g.g   = 0.133E-03  gl.gl    = 0.127E-03
 g(Force)  = 0.133E-03   g(Stress)= 0.000E+00 ortho     = 0.119E-04
 gamma     =   0.75217
 trial     =   0.90498
 opt step  =   1.20032  (harmonic =   1.20032) maximal distance =0.00109005
 next E    =  -760.112025   (d E  =  -0.00009)

 reached required accuracy - stopping structural energy minimisation