 vasp.5.4.4.18Apr17-6-g9f103f2a35 (build Jun 30 2017 19:19:18) complex

 executed on         MareNostrum4 date 2022.04.19  22:26:13

 INCAR:
 POTCAR:    PAW_PBE Ru 04Feb2005

 POTCAR:    PAW_PBE Ru 04Feb2005

 Optimization of the real space projectors (new method)

 maximal supplied QI-value         = 13.98
 optimisation between [QCUT,QGAM] = [ 10.77, 21.68] = [ 32.47,131.56] Ry
 Optimized for a Real-space Cutoff    1.51 Angstroem

   l    n(q)    QCUT    max X(q) W(low)/X(q) W(high)/X(q)  e(spline)
   2      9    10.768    61.733    0.26E-03    0.97E-04    0.28E-06
   2      9    10.768    59.886    0.26E-03    0.10E-03    0.29E-06
   0     10    10.768    23.358    0.12E-03    0.28E-03    0.38E-06
   0     10    10.768    11.320    0.93E-04    0.23E-03    0.31E-06
   1      9    10.768    14.765    0.48E-03    0.21E-03    0.19E-06
   1      9    10.768     8.283    0.36E-03    0.16E-03    0.15E-06
  PAW_PBE Ru 04Feb2005                  :

 POSCAR: Ru
  positions in cartesian coordinates
 exchange correlation table for  LEXCH =        8
   RHO(1)=    0.500       N(1)  =     2000
   RHO(2)=  100.500       N(2)  =     4000

 ion  position               nearest neighbor table
   1  0.048  0.167  0.200-  30 2.66  53 2.66  29 2.66   4 2.71   2 2.71  28 2.71   6 2.71   5 2.71
                            25 2.71
   2  0.048  0.417  0.200-  31 2.66  54 2.66  30 2.66   3 2.71   1 2.71  25 2.71   7 2.71  26 2.71
                             6 2.71
   3  0.048  0.667  0.200-  32 2.66  55 2.66  31 2.66   4 2.71   2 2.71  26 2.71   8 2.71  27 2.71
                             7 2.71
   4  0.048  0.917  0.200-  29 2.66  56 2.66  32 2.66   3 2.71   1 2.71  27 2.71   5 2.71  28 2.71
                             8 2.71
   5  0.190  0.167  0.200-  34 2.66  29 2.66  33 2.66  10 2.71   6 2.71   8 2.71   4 2.71   9 2.71
                             1 2.71
   6  0.190  0.417  0.200-  35 2.66  30 2.66  34 2.66  11 2.71   5 2.71   7 2.71   1 2.71  10 2.71
                             2 2.71
   7  0.190  0.667  0.200-  36 2.66  31 2.66  35 2.66  12 2.71   6 2.71   8 2.71   2 2.71  11 2.71
                             3 2.71
   8  0.190  0.917  0.200-  33 2.66  32 2.66  36 2.66   9 2.71   5 2.71   7 2.71   3 2.71  12 2.71
                             4 2.71
   9  0.333  0.167  0.200-  38 2.66  33 2.66  37 2.66   8 2.71  12 2.71  10 2.71  14 2.71   5 2.71
                            13 2.71
  10  0.333  0.417  0.200-  39 2.66  34 2.66  38 2.66   5 2.71  11 2.71   9 2.71  15 2.71   6 2.71
                            14 2.71
  11  0.333  0.667  0.200-  40 2.66  35 2.66  39 2.66   6 2.71  12 2.71  10 2.71  16 2.71   7 2.71
                            15 2.71
  12  0.333  0.917  0.200-  37 2.66  36 2.66  40 2.66   7 2.71  11 2.71   9 2.71  13 2.71   8 2.71
                            16 2.71
  13  0.476  0.167  0.200-  42 2.66  37 2.66  41 2.66  18 2.71  14 2.71  16 2.71  12 2.71  17 2.71
                             9 2.71
  14  0.476  0.417  0.200-  43 2.66  38 2.66  42 2.66  19 2.71  13 2.71  15 2.71   9 2.71  18 2.71
                            10 2.71
  15  0.476  0.667  0.200-  44 2.66  39 2.66  43 2.66  20 2.71  14 2.71  16 2.71  10 2.71  19 2.71
                            11 2.71
  16  0.476  0.917  0.200-  41 2.66  40 2.66  44 2.66  17 2.71  13 2.71  15 2.71  11 2.71  20 2.71
                            12 2.71
  17  0.619  0.167  0.200-  46 2.66  41 2.66  45 2.66  16 2.71  20 2.71  18 2.71  22 2.71  13 2.71
                            21 2.71
  18  0.619  0.417  0.200-  47 2.66  42 2.66  46 2.66  13 2.71  19 2.71  17 2.71  23 2.71  14 2.71
                            22 2.71
  19  0.619  0.667  0.200-  48 2.66  43 2.66  47 2.66  14 2.71  20 2.71  18 2.71  24 2.71  15 2.71
                            23 2.71
  20  0.619  0.917  0.200-  45 2.66  44 2.66  48 2.66  15 2.71  19 2.71  17 2.71  21 2.71  16 2.71
                            24 2.71
  21  0.762  0.167  0.200-  50 2.66  45 2.66  49 2.66  26 2.71  22 2.71  24 2.71  20 2.71  25 2.71
                            17 2.71
  22  0.762  0.417  0.200-  51 2.66  46 2.66  50 2.66  27 2.71  21 2.71  23 2.71  17 2.71  26 2.71
                            18 2.71
  23  0.762  0.667  0.200-  52 2.66  47 2.66  51 2.66  28 2.71  22 2.71  24 2.71  18 2.71  27 2.71
                            19 2.71
  24  0.762  0.917  0.200-  49 2.66  48 2.66  52 2.66  25 2.71  21 2.71  23 2.71  19 2.71  28 2.71
                            20 2.71
  25  0.905  0.167  0.200-  54 2.66  49 2.66  53 2.66  24 2.71  28 2.71  26 2.71   2 2.71  21 2.71
                             1 2.71
  26  0.905  0.417  0.200-  55 2.66  50 2.66  54 2.66  21 2.71  27 2.71  25 2.71   3 2.71  22 2.71
                             2 2.71
  27  0.905  0.667  0.200-  56 2.66  51 2.66  55 2.66  22 2.71  28 2.71  26 2.71   4 2.71  23 2.71
                             3 2.71
  28  0.905  0.917  0.200-  53 2.66  52 2.66  56 2.66  23 2.71  27 2.71  25 2.71   1 2.71  24 2.71
                             4 2.71
  29  0.095  0.083  0.100-   4 2.66   5 2.66   1 2.66  60 2.66  61 2.66  57 2.66  56 2.71  30 2.71
                            32 2.71  34 2.71  53 2.71  33 2.71
  30  0.095  0.333  0.100-   1 2.66   6 2.66   2 2.66  57 2.66  62 2.66  58 2.66  53 2.71  29 2.71
                            31 2.71  35 2.71  54 2.71  34 2.71
  31  0.095  0.583  0.100-   2 2.66   7 2.66   3 2.66  58 2.66  63 2.66  59 2.66  54 2.71  30 2.71
                            32 2.71  36 2.71  55 2.71  35 2.71
  32  0.095  0.833  0.100-   3 2.66   8 2.66   4 2.66  59 2.66  64 2.66  60 2.66  55 2.71  29 2.71
                            31 2.71  33 2.71  56 2.71  36 2.71
  33  0.238  0.083  0.100-   8 2.66   9 2.66   5 2.66  64 2.66  65 2.66  61 2.66  38 2.71  34 2.71
                            36 2.71  32 2.71  37 2.71  29 2.71
  34  0.238  0.333  0.100-   5 2.66  10 2.66   6 2.66  61 2.66  66 2.66  62 2.66  39 2.71  33 2.71
                            35 2.71  29 2.71  38 2.71  30 2.71
  35  0.238  0.583  0.100-   6 2.66  11 2.66   7 2.66  62 2.66  67 2.66  63 2.66  40 2.71  34 2.71
                            36 2.71  30 2.71  39 2.71  31 2.71
  36  0.238  0.833  0.100-   7 2.66  12 2.66   8 2.66  63 2.66  68 2.66  64 2.66  37 2.71  33 2.71
                            35 2.71  31 2.71  40 2.71  32 2.71
  37  0.381  0.083  0.100-  12 2.66  13 2.66   9 2.66  68 2.66  69 2.66  65 2.66  36 2.71  40 2.71
                            38 2.71  42 2.71  33 2.71  41 2.71
  38  0.381  0.333  0.100-   9 2.66  14 2.66  10 2.66  65 2.66  70 2.66  66 2.66  33 2.71  39 2.71
                            37 2.71  43 2.71  34 2.71  42 2.71
  39  0.381  0.583  0.100-  10 2.66  15 2.66  11 2.66  66 2.66  71 2.66  67 2.66  34 2.71  40 2.71
                            38 2.71  44 2.71  35 2.71  43 2.71
  40  0.381  0.833  0.100-  11 2.66  16 2.66  12 2.66  67 2.66  72 2.66  68 2.66  35 2.71  39 2.71
                            37 2.71  41 2.71  36 2.71  44 2.71
  41  0.524  0.083  0.100-  16 2.66  17 2.66  13 2.66  72 2.66  73 2.66  69 2.66  46 2.71  42 2.71
                            44 2.71  40 2.71  45 2.71  37 2.71
  42  0.524  0.333  0.100-  13 2.66  18 2.66  14 2.66  69 2.66  74 2.66  70 2.66  47 2.71  41 2.71
                            43 2.71  37 2.71  46 2.71  38 2.71
  43  0.524  0.583  0.100-  14 2.66  19 2.66  15 2.66  70 2.66  75 2.66  71 2.66  48 2.71  42 2.71
                            44 2.71  38 2.71  47 2.71  39 2.71
  44  0.524  0.833  0.100-  15 2.66  20 2.66  16 2.66  71 2.66  76 2.66  72 2.66  45 2.71  41 2.71
                            43 2.71  39 2.71  48 2.71  40 2.71
  45  0.667  0.083  0.100-  20 2.66  21 2.66  17 2.66  76 2.66  77 2.66  73 2.66  44 2.71  48 2.71
                            46 2.71  50 2.71  41 2.71  49 2.71
  46  0.667  0.333  0.100-  17 2.66  22 2.66  18 2.66  73 2.66  78 2.66  74 2.66  41 2.71  47 2.71
                            45 2.71  51 2.71  42 2.71  50 2.71
  47  0.667  0.583  0.100-  18 2.66  23 2.66  19 2.66  74 2.66  79 2.66  75 2.66  42 2.71  48 2.71
                            46 2.71  52 2.71  43 2.71  51 2.71
  48  0.667  0.833  0.100-  19 2.66  24 2.66  20 2.66  75 2.66  80 2.66  76 2.66  43 2.71  47 2.71
                            45 2.71  49 2.71  44 2.71  52 2.71
  49  0.810  0.083  0.100-  24 2.66  25 2.66  21 2.66  80 2.66  81 2.66  77 2.66  52 2.71  50 2.71
                            54 2.71  48 2.71  45 2.71  53 2.71
  50  0.810  0.333  0.100-  21 2.66  26 2.66  22 2.66  77 2.66  82 2.66  78 2.66  51 2.71  49 2.71
                            55 2.71  45 2.71  46 2.71  54 2.71
  51  0.810  0.583  0.100-  22 2.66  27 2.66  23 2.66  78 2.66  83 2.66  79 2.66  52 2.71  50 2.71
                            56 2.71  46 2.71  47 2.71  55 2.71
  52  0.810  0.833  0.100-  23 2.66  28 2.66  24 2.66  79 2.66  84 2.66  80 2.66  51 2.71  49 2.71
                            53 2.71  47 2.71  56 2.71  48 2.71
  53  0.952  0.083  0.100-  28 2.66   1 2.66  25 2.66  84 2.66  57 2.66  81 2.66  30 2.71  56 2.71
                            54 2.71  52 2.71  29 2.71  49 2.71
  54  0.952  0.333  0.100-  25 2.66   2 2.66  26 2.66  81 2.66  58 2.66  82 2.66  31 2.71  55 2.71
                            53 2.71  49 2.71  30 2.71  50 2.71
  55  0.952  0.583  0.100-  26 2.66   3 2.66  27 2.66  82 2.66  59 2.66  83 2.66  32 2.71  56 2.71
                            54 2.71  50 2.71  31 2.71  51 2.71
  56  0.952  0.833  0.100-  27 2.66   4 2.66  28 2.66  83 2.66  60 2.66  84 2.66  29 2.71  55 2.71
                            53 2.71  51 2.71  32 2.71  52 2.71
  57  0.048  0.167  0.000-  30 2.66  53 2.66  29 2.66  58 2.71  60 2.71  62 2.71  84 2.71  81 2.71
                            61 2.71
  58  0.048  0.417  0.000-  31 2.66  54 2.66  30 2.66  57 2.71  59 2.71  63 2.71  81 2.71  62 2.71
                            82 2.71
  59  0.048  0.667  0.000-  32 2.66  55 2.66  31 2.66  58 2.71  60 2.71  64 2.71  82 2.71  63 2.71
                            83 2.71
  60  0.048  0.917  0.000-  29 2.66  56 2.66  32 2.66  57 2.71  59 2.71  61 2.71  83 2.71  64 2.71
                            84 2.71
  61  0.190  0.167  0.000-  34 2.66  29 2.66  33 2.66  66 2.71  64 2.71  62 2.71  60 2.71  65 2.71
                            57 2.71
  62  0.190  0.417  0.000-  35 2.66  30 2.66  34 2.66  67 2.71  63 2.71  61 2.71  57 2.71  66 2.71
                            58 2.71
  63  0.190  0.667  0.000-  36 2.66  31 2.66  35 2.66  68 2.71  64 2.71  62 2.71  58 2.71  67 2.71
                            59 2.71
  64  0.190  0.917  0.000-  33 2.66  32 2.66  36 2.66  65 2.71  63 2.71  61 2.71  59 2.71  68 2.71
                            60 2.71
  65  0.333  0.167  0.000-  38 2.66  33 2.66  37 2.66  64 2.71  66 2.71  68 2.71  70 2.71  61 2.71
                            69 2.71
  66  0.333  0.417  0.000-  39 2.66  34 2.66  38 2.66  61 2.71  65 2.71  67 2.71  71 2.71  62 2.71
                            70 2.71
  67  0.333  0.667  0.000-  40 2.66  35 2.66  39 2.66  62 2.71  66 2.71  68 2.71  72 2.71  63 2.71
                            71 2.71
  68  0.333  0.917  0.000-  37 2.66  36 2.66  40 2.66  63 2.71  65 2.71  67 2.71  69 2.71  64 2.71
                            72 2.71
[...]

 FORCES acting on ions
    electron-ion (+dipol)            ewald-force                    non-local-force                 convergence-correction
   0.449E-02 0.186E-02 -.127E+04   0.305E-03 -.176E-03 0.126E+04   0.476E-02 -.324E-02 0.375E+01   -.225E-04 0.264E-04 -.423E-02
   0.445E-02 0.188E-02 -.127E+04   0.305E-03 -.176E-03 0.126E+04   0.476E-02 -.324E-02 0.375E+01   0.192E-04 0.401E-05 -.423E-02
   0.444E-02 0.191E-02 -.127E+04   0.305E-03 -.176E-03 0.126E+04   0.476E-02 -.324E-02 0.375E+01   0.357E-04 -.192E-04 -.425E-02
   0.448E-02 0.188E-02 -.127E+04   0.305E-03 -.176E-03 0.126E+04   0.476E-02 -.324E-02 0.375E+01   -.595E-05 0.471E-05 -.425E-02
   0.402E-02 0.183E-02 -.127E+04   0.305E-03 -.176E-03 0.126E+04   0.476E-02 -.324E-02 0.375E+01   0.337E-05 0.392E-04 -.423E-02
   0.401E-02 0.182E-02 -.127E+04   0.305E-03 -.176E-03 0.126E+04   0.476E-02 -.324E-02 0.375E+01   0.125E-04 0.472E-04 -.421E-02
   0.398E-02 0.186E-02 -.127E+04   0.305E-03 -.176E-03 0.126E+04   0.476E-02 -.324E-02 0.375E+01   0.481E-04 -.672E-05 -.422E-02
   0.399E-02 0.188E-02 -.127E+04   0.305E-03 -.176E-03 0.126E+04   0.476E-02 -.324E-02 0.375E+01   0.418E-04 -.176E-04 -.424E-02
   0.437E-02 0.110E-02 -.127E+04   0.305E-03 -.176E-03 0.126E+04   0.476E-02 -.324E-02 0.375E+01   0.192E-05 -.468E-05 -.425E-02
   0.440E-02 0.104E-02 -.127E+04   0.305E-03 -.176E-03 0.126E+04   0.476E-02 -.324E-02 0.375E+01   -.235E-04 0.473E-04 -.422E-02
   0.438E-02 0.109E-02 -.127E+04   0.305E-03 -.176E-03 0.126E+04   0.476E-02 -.324E-02 0.375E+01   -.316E-05 0.403E-05 -.421E-02
   0.435E-02 0.114E-02 -.127E+04   0.305E-03 -.176E-03 0.126E+04   0.476E-02 -.324E-02 0.375E+01   0.236E-04 -.478E-04 -.423E-02
   0.413E-02 0.157E-02 -.127E+04   0.305E-03 -.176E-03 0.126E+04   0.476E-02 -.324E-02 0.375E+01   -.484E-05 -.255E-04 -.426E-02
   0.412E-02 0.150E-02 -.127E+04   0.305E-03 -.176E-03 0.126E+04   0.476E-02 -.324E-02 0.375E+01   -.150E-05 0.488E-04 -.425E-02
   0.412E-02 0.152E-02 -.127E+04   0.305E-03 -.176E-03 0.126E+04   0.476E-02 -.324E-02 0.375E+01   0.337E-06 0.237E-04 -.423E-02
   0.412E-02 0.159E-02 -.127E+04   0.305E-03 -.176E-03 0.126E+04   0.476E-02 -.324E-02 0.375E+01   -.213E-05 -.515E-04 -.424E-02
   0.495E-02 0.132E-02 -.127E+04   0.305E-03 -.176E-03 0.126E+04   0.476E-02 -.324E-02 0.375E+01   0.165E-04 -.344E-04 -.426E-02
   0.498E-02 0.123E-02 -.127E+04   0.305E-03 -.176E-03 0.126E+04   0.476E-02 -.324E-02 0.375E+01   -.912E-05 0.580E-04 -.425E-02
   0.495E-02 0.123E-02 -.127E+04   0.305E-03 -.176E-03 0.126E+04   0.476E-02 -.324E-02 0.375E+01   0.171E-04 0.567E-04 -.422E-02
   0.493E-02 0.132E-02 -.127E+04   0.305E-03 -.176E-03 0.126E+04   0.476E-02 -.324E-02 0.375E+01   0.463E-04 -.386E-04 -.423E-02
   0.400E-02 0.213E-02 -.127E+04   0.305E-03 -.176E-03 0.126E+04   0.476E-02 -.324E-02 0.375E+01   0.335E-04 -.655E-04 -.424E-02
   0.404E-02 0.206E-02 -.127E+04   0.305E-03 -.176E-03 0.126E+04   0.476E-02 -.324E-02 0.375E+01   -.120E-04 0.123E-04 -.425E-02
   0.409E-02 0.203E-02 -.127E+04   0.305E-03 -.176E-03 0.126E+04   0.476E-02 -.324E-02 0.375E+01   -.596E-04 0.460E-04 -.423E-02
   0.405E-02 0.209E-02 -.127E+04   0.305E-03 -.176E-03 0.126E+04   0.476E-02 -.324E-02 0.375E+01   -.200E-04 -.269E-04 -.421E-02
   0.436E-02 0.833E-03 -.127E+04   0.305E-03 -.176E-03 0.126E+04   0.476E-02 -.324E-02 0.375E+01   -.271E-04 -.378E-04 -.423E-02
   0.431E-02 0.827E-03 -.127E+04   0.305E-03 -.176E-03 0.126E+04   0.476E-02 -.324E-02 0.375E+01   0.160E-04 -.303E-04 -.425E-02
   0.437E-02 0.793E-03 -.127E+04   0.305E-03 -.176E-03 0.126E+04   0.476E-02 -.324E-02 0.375E+01   -.371E-04 -.411E-06 -.425E-02
   0.441E-02 0.805E-03 -.127E+04   0.305E-03 -.176E-03 0.126E+04   0.476E-02 -.324E-02 0.375E+01   -.813E-04 -.531E-05 -.423E-02
   -.571E-02 0.229E-02 0.269E-01   -.610E-03 0.352E-03 -.178E-01   -.165E-01 -.824E-02 -.965E-03   0.669E-05 0.657E-05 -.854E-02
   -.570E-02 0.228E-02 0.268E-01   -.610E-03 0.352E-03 -.178E-01   -.165E-01 -.824E-02 -.965E-03   -.245E-05 0.183E-04 -.851E-02
   -.571E-02 0.229E-02 0.269E-01   -.610E-03 0.352E-03 -.178E-01   -.165E-01 -.824E-02 -.965E-03   0.113E-04 0.894E-06 -.853E-02
   -.572E-02 0.230E-02 0.269E-01   -.610E-03 0.352E-03 -.178E-01   -.165E-01 -.824E-02 -.965E-03   0.187E-04 -.771E-05 -.856E-02
   -.416E-02 0.165E-02 0.283E-01   -.610E-03 0.352E-03 -.178E-01   -.165E-01 -.824E-02 -.965E-03   0.176E-04 -.491E-05 -.855E-02
   -.415E-02 0.163E-02 0.282E-01   -.610E-03 0.352E-03 -.178E-01   -.165E-01 -.824E-02 -.965E-03   -.451E-06 0.145E-04 -.851E-02
   -.415E-02 0.162E-02 0.282E-01   -.610E-03 0.352E-03 -.178E-01   -.165E-01 -.824E-02 -.965E-03   0.620E-05 0.178E-04 -.848E-02
   -.417E-02 0.164E-02 0.282E-01   -.610E-03 0.352E-03 -.178E-01   -.165E-01 -.824E-02 -.965E-03   0.263E-04 0.994E-07 -.853E-02
   -.381E-02 0.256E-02 0.275E-01   -.610E-03 0.352E-03 -.178E-01   -.165E-01 -.824E-02 -.965E-03   0.211E-04 -.186E-04 -.856E-02
   -.380E-02 0.255E-02 0.275E-01   -.610E-03 0.352E-03 -.178E-01   -.165E-01 -.824E-02 -.965E-03   0.102E-04 -.140E-05 -.853E-02
   -.378E-02 0.252E-02 0.274E-01   -.610E-03 0.352E-03 -.178E-01   -.165E-01 -.824E-02 -.965E-03   -.905E-05 0.227E-04 -.847E-02
   -.378E-02 0.254E-02 0.275E-01   -.610E-03 0.352E-03 -.178E-01   -.165E-01 -.824E-02 -.965E-03   0.223E-05 0.102E-04 -.851E-02
   -.513E-02 0.307E-02 0.254E-01   -.610E-03 0.352E-03 -.178E-01   -.165E-01 -.824E-02 -.965E-03   -.104E-04 -.166E-04 -.858E-02
   -.514E-02 0.305E-02 0.254E-01   -.610E-03 0.352E-03 -.178E-01   -.165E-01 -.824E-02 -.965E-03   0.801E-05 -.686E-05 -.856E-02
   -.515E-02 0.304E-02 0.253E-01   -.610E-03 0.352E-03 -.178E-01   -.165E-01 -.824E-02 -.965E-03   0.135E-04 0.169E-04 -.848E-02
   -.513E-02 0.304E-02 0.254E-01   -.610E-03 0.352E-03 -.178E-01   -.165E-01 -.824E-02 -.965E-03   -.505E-05 0.834E-05 -.849E-02
   -.535E-02 0.213E-02 0.281E-01   -.610E-03 0.352E-03 -.178E-01   -.165E-01 -.824E-02 -.965E-03   -.127E-05 -.190E-04 -.851E-02
   -.535E-02 0.212E-02 0.281E-01   -.610E-03 0.352E-03 -.178E-01   -.165E-01 -.824E-02 -.965E-03   -.113E-04 -.475E-06 -.857E-02
   -.535E-02 0.210E-02 0.280E-01   -.610E-03 0.352E-03 -.178E-01   -.165E-01 -.824E-02 -.965E-03   -.431E-05 0.157E-04 -.849E-02
   -.536E-02 0.212E-02 0.280E-01   -.610E-03 0.352E-03 -.178E-01   -.165E-01 -.824E-02 -.965E-03   0.874E-05 -.115E-05 -.844E-02
   -.354E-02 0.202E-02 0.282E-01   -.610E-03 0.352E-03 -.178E-01   -.165E-01 -.824E-02 -.965E-03   -.281E-05 -.215E-04 -.847E-02
   -.354E-02 0.201E-02 0.283E-01   -.610E-03 0.352E-03 -.178E-01   -.165E-01 -.824E-02 -.965E-03   0.446E-06 -.716E-05 -.854E-02
   -.352E-02 0.200E-02 0.283E-01   -.610E-03 0.352E-03 -.178E-01   -.165E-01 -.824E-02 -.965E-03   -.197E-04 0.109E-05 -.853E-02
   -.351E-02 0.200E-02 0.282E-01   -.610E-03 0.352E-03 -.178E-01   -.165E-01 -.824E-02 -.965E-03   -.301E-04 -.474E-05 -.846E-02
   -.318E-02 0.307E-02 0.256E-01   -.610E-03 0.352E-03 -.178E-01   -.165E-01 -.824E-02 -.965E-03   -.310E-04 -.475E-05 -.850E-02
   -.320E-02 0.307E-02 0.256E-01   -.610E-03 0.352E-03 -.178E-01   -.165E-01 -.824E-02 -.965E-03   -.587E-05 -.597E-05 -.852E-02
   -.320E-02 0.308E-02 0.256E-01   -.610E-03 0.352E-03 -.178E-01   -.165E-01 -.824E-02 -.965E-03   0.152E-05 -.113E-04 -.856E-02
   -.319E-02 0.308E-02 0.256E-01   -.610E-03 0.352E-03 -.178E-01   -.165E-01 -.824E-02 -.965E-03   -.187E-04 -.108E-04 -.854E-02
   0.297E-02 0.225E-02 0.127E+04   0.305E-03 -.176E-03 -.126E+04   0.970E-02 0.415E-02 -.374E+01   0.679E-05 0.445E-05 -.353E-02
   0.299E-02 0.224E-02 0.127E+04   0.305E-03 -.176E-03 -.126E+04   0.970E-02 0.415E-02 -.374E+01   -.181E-04 0.175E-04 -.353E-02
   0.298E-02 0.226E-02 0.127E+04   0.305E-03 -.176E-03 -.126E+04   0.970E-02 0.415E-02 -.374E+01   -.547E-05 -.981E-06 -.354E-02
   0.295E-02 0.228E-02 0.127E+04   0.305E-03 -.176E-03 -.126E+04   0.970E-02 0.415E-02 -.374E+01   0.241E-04 -.188E-04 -.355E-02
[...]
   0.551E-02 0.278E-02 0.127E+04   0.305E-03 -.176E-03 -.126E+04   0.970E-02 0.415E-02 -.374E+01   -.120E-04 0.203E-04 -.351E-02
   0.553E-02 0.275E-02 0.127E+04   0.305E-03 -.176E-03 -.126E+04   0.970E-02 0.415E-02 -.374E+01   -.304E-04 0.518E-04 -.354E-02
   0.233E-02 0.323E-02 0.127E+04   0.305E-03 -.176E-03 -.126E+04   0.970E-02 0.415E-02 -.374E+01   -.527E-04 0.258E-05 -.355E-02
   0.227E-02 0.328E-02 0.127E+04   0.305E-03 -.176E-03 -.126E+04   0.970E-02 0.415E-02 -.374E+01   -.643E-06 -.534E-04 -.354E-02
   0.227E-02 0.326E-02 0.127E+04   0.305E-03 -.176E-03 -.126E+04   0.970E-02 0.415E-02 -.374E+01   0.414E-05 -.278E-04 -.349E-02
   0.232E-02 0.321E-02 0.127E+04   0.305E-03 -.176E-03 -.126E+04   0.970E-02 0.415E-02 -.374E+01   -.484E-04 0.228E-04 -.350E-02
   0.455E-02 0.556E-02 0.127E+04   0.305E-03 -.176E-03 -.126E+04   0.970E-02 0.415E-02 -.374E+01   -.219E-04 0.322E-04 -.351E-02
   0.454E-02 0.560E-02 0.127E+04   0.305E-03 -.176E-03 -.126E+04   0.970E-02 0.415E-02 -.374E+01   -.925E-05 -.729E-05 -.354E-02
   0.451E-02 0.562E-02 0.127E+04   0.305E-03 -.176E-03 -.126E+04   0.970E-02 0.415E-02 -.374E+01   0.167E-04 -.347E-04 -.350E-02
   0.453E-02 0.559E-02 0.127E+04   0.305E-03 -.176E-03 -.126E+04   0.970E-02 0.415E-02 -.374E+01   0.365E-05 0.434E-05 -.348E-02
   0.651E-02 0.358E-02 0.127E+04   0.305E-03 -.176E-03 -.126E+04   0.970E-02 0.415E-02 -.374E+01   -.986E-06 0.260E-04 -.352E-02
   0.651E-02 0.359E-02 0.127E+04   0.305E-03 -.176E-03 -.126E+04   0.970E-02 0.415E-02 -.374E+01   -.332E-05 0.205E-04 -.354E-02
   0.649E-02 0.363E-02 0.127E+04   0.305E-03 -.176E-03 -.126E+04   0.970E-02 0.415E-02 -.374E+01   0.187E-04 -.204E-04 -.354E-02
   0.649E-02 0.362E-02 0.127E+04   0.305E-03 -.176E-03 -.126E+04   0.970E-02 0.415E-02 -.374E+01   0.165E-04 -.109E-04 -.352E-02
   0.121E+00 0.217E+00 0.481E+00   0.222E-12 0.128E-11 0.184E-10   -.583E-01 -.205E+00 0.546E-01   -.123E-05 -.104E-04 -.456E+00

 POSITION                                       TOTAL-FORCE (eV/Angst)
     -0.00001      1.56613      4.29100         0.008647     -0.002050     -1.008503
     -1.35631      3.91531      4.29100         0.008647     -0.002050     -1.008503
     -2.71261      6.26449      4.29100         0.008647     -0.002050     -1.008503
     -4.06891      8.61367      4.29100         0.008647     -0.002050     -1.008503
      2.71259      1.56613      4.29100         0.008647     -0.002050     -1.008503
      1.35629      3.91531      4.29100         0.008647     -0.002050     -1.008503
     -0.00001      6.26449      4.29100         0.008647     -0.002050     -1.008503
     -1.35631      8.61367      4.29100         0.008647     -0.002050     -1.008503
      5.42519      1.56613      4.29100         0.008647     -0.002050     -1.008503
      4.06889      3.91531      4.29100         0.008647     -0.002050     -1.008503
      2.71259      6.26449      4.29100         0.008647     -0.002050     -1.008503
      1.35629      8.61367      4.29100         0.008647     -0.002050     -1.008503
      8.13779      1.56613      4.29100         0.008647     -0.002050     -1.008503
      6.78149      3.91531      4.29100         0.008647     -0.002050     -1.008503
      5.42519      6.26449      4.29100         0.008647     -0.002050     -1.008503
      4.06889      8.61367      4.29100         0.008647     -0.002050     -1.008503
     10.85039      1.56613      4.29100         0.008647     -0.002050     -1.008503
      9.49409      3.91531      4.29100         0.008647     -0.002050     -1.008503
      8.13779      6.26449      4.29100         0.008647     -0.002050     -1.008503
      6.78149      8.61367      4.29100         0.008647     -0.002050     -1.008503
     13.56299      1.56613      4.29100         0.008647     -0.002050     -1.008503
     12.20669      3.91531      4.29100         0.008647     -0.002050     -1.008503
     10.85039      6.26449      4.29100         0.008647     -0.002050     -1.008503
      9.49409      8.61367      4.29100         0.008647     -0.002050     -1.008503
     16.27559      1.56613      4.29100         0.008647     -0.002050     -1.008503
     14.91929      3.91531      4.29100         0.008647     -0.002050     -1.008503
     13.56299      6.26449      4.29100         0.008647     -0.002050     -1.008503
     12.20669      8.61367      4.29100         0.008647     -0.002050     -1.008503
      1.35631      0.78305      2.14564        -0.022305     -0.005650     -0.001122
      0.00001      3.13223      2.14564        -0.022305     -0.005650     -0.001122
     -1.35629      5.48141      2.14564        -0.022305     -0.005650     -0.001122
     -2.71259      7.83059      2.14564        -0.022305     -0.005650     -0.001122
      4.06891      0.78305      2.14564        -0.022305     -0.005650     -0.001122
      2.71261      3.13223      2.14564        -0.022305     -0.005650     -0.001122
      1.35631      5.48141      2.14564        -0.022305     -0.005650     -0.001122
      0.00001      7.83059      2.14564        -0.022305     -0.005650     -0.001122
      6.78151      0.78305      2.14564        -0.022305     -0.005650     -0.001122
      5.42521      3.13223      2.14564        -0.022305     -0.005650     -0.001122
      4.06891      5.48141      2.14564        -0.022305     -0.005650     -0.001122
      2.71261      7.83059      2.14564        -0.022305     -0.005650     -0.001122
      9.49411      0.78305      2.14564        -0.022305     -0.005650     -0.001122
      8.13781      3.13223      2.14564        -0.022305     -0.005650     -0.001122
      6.78151      5.48141      2.14564        -0.022305     -0.005650     -0.001122
      5.42521      7.83059      2.14564        -0.022305     -0.005650     -0.001122
     12.20671      0.78305      2.14564        -0.022305     -0.005650     -0.001122
     10.85041      3.13223      2.14564        -0.022305     -0.005650     -0.001122
      9.49411      5.48141      2.14564        -0.022305     -0.005650     -0.001122
      8.13781      7.83059      2.14564        -0.022305     -0.005650     -0.001122
     14.91931      0.78305      2.14564        -0.022305     -0.005650     -0.001122
     13.56301      3.13223      2.14564        -0.022305     -0.005650     -0.001122
     12.20671      5.48141      2.14564        -0.022305     -0.005650     -0.001122
     10.85041      7.83059      2.14564        -0.022305     -0.005650     -0.001122
     17.63191      0.78305      2.14564        -0.022305     -0.005650     -0.001122
     16.27561      3.13223      2.14564        -0.022305     -0.005650     -0.001122
     14.91931      5.48141      2.14564        -0.022305     -0.005650     -0.001122
     13.56301      7.83059      2.14564        -0.022305     -0.005650     -0.001122
     -0.00001      1.56613      0.00000         0.013658      0.007700      1.009624
     -1.35631      3.91531      0.00000         0.013658      0.007700      1.009624
     -2.71261      6.26449      0.00000         0.013658      0.007700      1.009624
     -4.06891      8.61367      0.00000         0.013658      0.007700      1.009624
[...]
      6.78149      3.91531      0.00000         0.013658      0.007700      1.009624
      5.42519      6.26449      0.00000         0.013658      0.007700      1.009624
      4.06889      8.61367      0.00000         0.013658      0.007700      1.009624
     10.85039      1.56613      0.00000         0.013658      0.007700      1.009624
      9.49409      3.91531      0.00000         0.013658      0.007700      1.009624
      8.13779      6.26449      0.00000         0.013658      0.007700      1.009624
      6.78149      8.61367      0.00000         0.013658      0.007700      1.009624
     13.56299      1.56613      0.00000         0.013658      0.007700      1.009624
     12.20669      3.91531      0.00000         0.013658      0.007700      1.009624
     10.85039      6.26449      0.00000         0.013658      0.007700      1.009624
      9.49409      8.61367      0.00000         0.013658      0.007700      1.009624
     16.27559      1.56613      0.00000         0.013658      0.007700      1.009624
     14.91929      3.91531      0.00000         0.013658      0.007700      1.009624
     13.56299      6.26449      0.00000         0.013658      0.007700      1.009624
     12.20669      8.61367      0.00000         0.013658      0.007700      1.009624
    total drift:                                0.062651      0.012182      0.079433

  FREE ENERGIE OF THE ION-ELECTRON SYSTEM (eV)
  free  energy   TOTEN  =      -725.45731911 eV

  energy  without entropy=     -725.42283989  energy(sigma->0) =     -725.44007950

 Quasi-Newton relaxation of ions (Broydens 2nd method)
  g(Force)  = 0.000E+00   g(Stress)= 0.000E+00

 Reset! Starting new Quasi-Newton update for ions

 reached required accuracy - stopping structural energy minimisation