 vasp.5.4.4.18Apr17-6-g9f103f2a35 (build Jun 30 2017 19:19:18) complex

 executed on         MareNostrum4 date 2022.04.19  22:26:05

 INCAR:
 POTCAR:    PAW_PBE Ni 02Aug2007

 POTCAR:    PAW_PBE Ni 02Aug2007

 Optimization of the real space projectors (new method)

 maximal supplied QI-value         = 16.25
 optimisation between [QCUT,QGAM] = [ 10.73, 21.61] = [ 32.22,130.83] Ry
 Optimized for a Real-space Cutoff    1.34 Angstroem

   l    n(q)    QCUT    max X(q) W(low)/X(q) W(high)/X(q)  e(spline)
   2      8    10.726    60.317    0.47E-03    0.39E-03    0.97E-07
   2      8    10.726    55.921    0.48E-03    0.39E-03    0.10E-06
   0      9    10.726    51.690    0.35E-03    0.32E-03    0.97E-07
   0      9    10.726    30.015    0.31E-03    0.29E-03    0.88E-07
   1      8    10.726    18.849    0.34E-03    0.47E-04    0.17E-06
   1      8    10.726    14.624    0.29E-03    0.31E-04    0.15E-06
  PAW_PBE Ni 02Aug2007                  :

 POSCAR: Ni
  positions in cartesian coordinates
 exchange correlation table for  LEXCH =        8
   RHO(1)=    0.500       N(1)  =     2000
   RHO(2)=  100.500       N(2)  =     4000

 ion  position               nearest neighbor table
   1  0.000  0.250  0.190-  30 2.46  53 2.46  54 2.46   4 2.49   2 2.49  28 2.49   6 2.49  25 2.49
                             5 2.49
   2  0.000  0.500  0.190-  31 2.46  54 2.46  55 2.46   3 2.49   1 2.49  25 2.49   7 2.49  26 2.49
                             6 2.49
   3  0.000  0.750  0.190-  32 2.46  55 2.46  56 2.46   4 2.49   2 2.49  26 2.49   8 2.49  27 2.49
                             7 2.49
   4  0.000  1.000  0.190-  29 2.46  56 2.46  53 2.46   3 2.49   1 2.49  27 2.49   5 2.49  28 2.49
                             8 2.49
   5  0.143  0.250  0.190-  34 2.46  29 2.46  30 2.46   8 2.49   6 2.49  10 2.49   4 2.49   9 2.49
                             1 2.49
   6  0.143  0.500  0.190-  35 2.46  30 2.46  31 2.46   7 2.49   5 2.49  11 2.49   1 2.49  10 2.49
                             2 2.49
   7  0.143  0.750  0.190-  36 2.46  31 2.46  32 2.46   8 2.49   6 2.49  12 2.49   2 2.49  11 2.49
                             3 2.49
   8  0.143  1.000  0.190-  33 2.46  32 2.46  29 2.46   7 2.49   5 2.49   9 2.49   3 2.49  12 2.49
                             4 2.49
   9  0.286  0.250  0.190-  38 2.46  33 2.46  34 2.46  12 2.49  10 2.49   8 2.49  14 2.49   5 2.49
                            13 2.49
  10  0.286  0.500  0.190-  39 2.46  34 2.46  35 2.46  11 2.49   9 2.49   5 2.49  15 2.49   6 2.49
                            14 2.49
  11  0.286  0.750  0.190-  40 2.46  35 2.46  36 2.46  12 2.49  10 2.49   6 2.49  16 2.49   7 2.49
                            15 2.49
  12  0.286  1.000  0.190-  37 2.46  36 2.46  33 2.46  11 2.49   9 2.49   7 2.49  13 2.49   8 2.49
                            16 2.49
  13  0.429  0.250  0.190-  42 2.46  37 2.46  38 2.46  16 2.49  14 2.49  18 2.49  12 2.49   9 2.49
                            17 2.49
  14  0.429  0.500  0.190-  43 2.46  38 2.46  39 2.46  15 2.49  13 2.49  19 2.49   9 2.49  10 2.49
                            18 2.49
  15  0.429  0.750  0.190-  44 2.46  39 2.46  40 2.46  16 2.49  14 2.49  20 2.49  10 2.49  11 2.49
                            19 2.49
  16  0.429  1.000  0.190-  41 2.46  40 2.46  37 2.46  15 2.49  13 2.49  17 2.49  11 2.49  20 2.49
                            12 2.49
  17  0.571  0.250  0.190-  46 2.46  41 2.46  42 2.46  20 2.49  18 2.49  22 2.49  16 2.49  21 2.49
                            13 2.49
  18  0.571  0.500  0.190-  47 2.46  42 2.46  43 2.46  19 2.49  17 2.49  23 2.49  13 2.49  22 2.49
                            14 2.49
  19  0.571  0.750  0.190-  48 2.46  43 2.46  44 2.46  20 2.49  18 2.49  24 2.49  14 2.49  23 2.49
                            15 2.49
  20  0.571  1.000  0.190-  45 2.46  44 2.46  41 2.46  19 2.49  17 2.49  21 2.49  15 2.49  24 2.49
                            16 2.49
  21  0.714  0.250  0.190-  50 2.46  45 2.46  46 2.46  24 2.49  22 2.49  20 2.49  26 2.49  17 2.49
                            25 2.49
  22  0.714  0.500  0.190-  51 2.46  46 2.46  47 2.46  23 2.49  21 2.49  17 2.49  27 2.49  18 2.49
                            26 2.49
  23  0.714  0.750  0.190-  52 2.46  47 2.46  48 2.46  24 2.49  22 2.49  18 2.49  28 2.49  19 2.49
                            27 2.49
  24  0.714  1.000  0.190-  49 2.46  48 2.46  45 2.46  23 2.49  21 2.49  19 2.49  25 2.49  20 2.49
                            28 2.49
  25  0.857  0.250  0.190-  54 2.46  49 2.46  50 2.46  28 2.49  26 2.49   2 2.49  24 2.49   1 2.49
                            21 2.49
  26  0.857  0.500  0.190-  55 2.46  50 2.46  51 2.46  27 2.49  25 2.49   3 2.49  21 2.49   2 2.49
                            22 2.49
  27  0.857  0.750  0.190-  56 2.46  51 2.46  52 2.46  28 2.49  26 2.49   4 2.49  22 2.49   3 2.49
                            23 2.49
  28  0.857  1.000  0.190-  53 2.46  52 2.46  49 2.46  27 2.49  25 2.49   1 2.49  23 2.49   4 2.49
                            24 2.49
  29  0.095  0.083  0.095-   4 2.46   5 2.46   8 2.46  60 2.46  57 2.46  61 2.46  32 2.49  30 2.49
                            34 2.49  56 2.49  33 2.49  53 2.49
  30  0.095  0.333  0.095-   1 2.46   6 2.46   5 2.46  57 2.46  58 2.46  62 2.46  31 2.49  29 2.49
                            35 2.49  53 2.49  34 2.49  54 2.49
  31  0.095  0.583  0.095-   2 2.46   7 2.46   6 2.46  58 2.46  59 2.46  63 2.46  32 2.49  30 2.49
                            36 2.49  54 2.49  35 2.49  55 2.49
  32  0.095  0.833  0.095-   3 2.46   8 2.46   7 2.46  59 2.46  60 2.46  64 2.46  31 2.49  29 2.49
                            33 2.49  55 2.49  36 2.49  56 2.49
  33  0.238  0.083  0.095-   8 2.46   9 2.46  12 2.46  64 2.46  61 2.46  65 2.46  36 2.49  34 2.49
                            32 2.49  38 2.49  29 2.49  37 2.49
  34  0.238  0.333  0.095-   5 2.46  10 2.46   9 2.46  61 2.46  62 2.46  66 2.46  35 2.49  33 2.49
                            29 2.49  39 2.49  30 2.49  38 2.49
  35  0.238  0.583  0.095-   6 2.46  11 2.46  10 2.46  62 2.46  63 2.46  67 2.46  36 2.49  34 2.49
                            30 2.49  40 2.49  31 2.49  39 2.49
  36  0.238  0.833  0.095-   7 2.46  12 2.46  11 2.46  63 2.46  64 2.46  68 2.46  35 2.49  33 2.49
                            31 2.49  37 2.49  32 2.49  40 2.49
  37  0.381  0.083  0.095-  12 2.46  13 2.46  16 2.46  68 2.46  65 2.46  69 2.46  40 2.49  38 2.49
                            42 2.49  36 2.49  33 2.49  41 2.49
  38  0.381  0.333  0.095-   9 2.46  14 2.46  13 2.46  65 2.46  66 2.46  70 2.46  39 2.49  37 2.49
                            43 2.49  33 2.49  34 2.49  42 2.49
  39  0.381  0.583  0.095-  10 2.46  15 2.46  14 2.46  66 2.46  67 2.46  71 2.46  40 2.49  38 2.49
                            44 2.49  34 2.49  35 2.49  43 2.49
  40  0.381  0.833  0.095-  11 2.46  16 2.46  15 2.46  67 2.46  68 2.46  72 2.46  39 2.49  37 2.49
                            41 2.49  35 2.49  44 2.49  36 2.49
  41  0.524  0.083  0.095-  16 2.46  17 2.46  20 2.46  72 2.46  69 2.46  73 2.46  44 2.49  42 2.49
                            46 2.49  40 2.49  45 2.49  37 2.49
  42  0.524  0.333  0.095-  13 2.46  18 2.46  17 2.46  69 2.46  70 2.46  74 2.46  43 2.49  41 2.49
                            47 2.49  37 2.49  46 2.49  38 2.49
  43  0.524  0.583  0.095-  14 2.46  19 2.46  18 2.46  70 2.46  71 2.46  75 2.46  44 2.49  42 2.49
                            48 2.49  38 2.49  47 2.49  39 2.49
  44  0.524  0.833  0.095-  15 2.46  20 2.46  19 2.46  71 2.46  72 2.46  76 2.46  43 2.49  41 2.49
                            45 2.49  39 2.49  48 2.49  40 2.49
  45  0.667  0.083  0.095-  20 2.46  21 2.46  24 2.46  76 2.46  73 2.46  77 2.46  48 2.49  46 2.49
                            44 2.49  50 2.49  41 2.49  49 2.49
  46  0.667  0.333  0.095-  17 2.46  22 2.46  21 2.46  73 2.46  74 2.46  78 2.46  47 2.49  45 2.49
                            41 2.49  51 2.49  42 2.49  50 2.49
  47  0.667  0.583  0.095-  18 2.46  23 2.46  22 2.46  74 2.46  75 2.46  79 2.46  48 2.49  46 2.49
                            42 2.49  52 2.49  43 2.49  51 2.49
  48  0.667  0.833  0.095-  19 2.46  24 2.46  23 2.46  75 2.46  76 2.46  80 2.46  47 2.49  45 2.49
                            43 2.49  49 2.49  44 2.49  52 2.49
  49  0.810  0.083  0.095-  24 2.46  25 2.46  28 2.46  80 2.46  77 2.46  81 2.46  52 2.49  50 2.49
                            54 2.49  48 2.49  53 2.49  45 2.49
  50  0.810  0.333  0.095-  21 2.46  26 2.46  25 2.46  77 2.46  78 2.46  82 2.46  51 2.49  49 2.49
                            55 2.49  45 2.49  54 2.49  46 2.49
  51  0.810  0.583  0.095-  22 2.46  27 2.46  26 2.46  78 2.46  79 2.46  83 2.46  52 2.49  50 2.49
                            56 2.49  46 2.49  55 2.49  47 2.49
  52  0.810  0.833  0.095-  23 2.46  28 2.46  27 2.46  79 2.46  80 2.46  84 2.46  51 2.49  49 2.49
                            53 2.49  47 2.49  56 2.49  48 2.49
  53  0.952  0.083  0.095-  28 2.46   1 2.46   4 2.46  84 2.46  81 2.46  57 2.46  56 2.49  54 2.49
                            52 2.49  30 2.49  49 2.49  29 2.49
  54  0.952  0.333  0.095-  25 2.46   2 2.46   1 2.46  81 2.46  82 2.46  58 2.46  55 2.49  53 2.49
                            49 2.49  31 2.49  50 2.49  30 2.49
  55  0.952  0.583  0.095-  26 2.46   3 2.46   2 2.46  82 2.46  83 2.46  59 2.46  56 2.49  54 2.49
                            50 2.49  32 2.49  51 2.49  31 2.49
  56  0.952  0.833  0.095-  27 2.46   4 2.46   3 2.46  83 2.46  84 2.46  60 2.46  55 2.49  53 2.49
                            51 2.49  29 2.49  52 2.49  32 2.49
  57  0.048  0.167  0.000-  30 2.46  29 2.46  53 2.46  58 2.49  60 2.49  62 2.49  84 2.49  81 2.49
                            61 2.49
  58  0.048  0.417  0.000-  31 2.46  30 2.46  54 2.46  57 2.49  59 2.49  63 2.49  81 2.49  62 2.49
                            82 2.49
  59  0.048  0.667  0.000-  32 2.46  31 2.46  55 2.46  58 2.49  60 2.49  64 2.49  82 2.49  63 2.49
                            83 2.49
  60  0.048  0.917  0.000-  29 2.46  32 2.46  56 2.46  57 2.49  59 2.49  61 2.49  83 2.49  64 2.49
                            84 2.49
  61  0.190  0.167  0.000-  34 2.46  33 2.46  29 2.46  62 2.49  64 2.49  66 2.49  60 2.49  65 2.49
                            57 2.49
  62  0.190  0.417  0.000-  35 2.46  34 2.46  30 2.46  61 2.49  63 2.49  67 2.49  57 2.49  66 2.49
                            58 2.49
  63  0.190  0.667  0.000-  36 2.46  35 2.46  31 2.46  62 2.49  64 2.49  68 2.49  58 2.49  67 2.49
                            59 2.49
  64  0.190  0.917  0.000-  33 2.46  36 2.46  32 2.46  61 2.49  63 2.49  65 2.49  59 2.49  68 2.49
                            60 2.49
  65  0.333  0.167  0.000-  38 2.46  37 2.46  33 2.46  66 2.49  68 2.49  64 2.49  70 2.49  61 2.49
                            69 2.49
  66  0.333  0.417  0.000-  39 2.46  38 2.46  34 2.46  65 2.49  67 2.49  61 2.49  71 2.49  62 2.49
                            70 2.49
  67  0.333  0.667  0.000-  40 2.46  39 2.46  35 2.46  66 2.49  68 2.49  62 2.49  72 2.49  63 2.49
                            71 2.49
  68  0.333  0.917  0.000-  37 2.46  40 2.46  36 2.46  65 2.49  67 2.49  63 2.49  69 2.49  64 2.49
                            72 2.49
[...]
   -.128E-01 -.317E-02 0.528E+00   0.135E-01 0.287E-02 -.550E+00   0.305E-03 0.311E-03 -.167E-02   -.180E-04 -.111E-04 -.363E-02
   -.131E-01 -.316E-02 0.526E+00   0.135E-01 0.287E-02 -.550E+00   0.305E-03 0.311E-03 -.167E-02   -.182E-04 -.104E-04 -.363E-02
   -.128E-01 -.317E-02 0.528E+00   0.135E-01 0.287E-02 -.550E+00   0.305E-03 0.311E-03 -.167E-02   -.182E-04 -.108E-04 -.363E-02
   -.131E-01 -.316E-02 0.526E+00   0.135E-01 0.287E-02 -.550E+00   0.305E-03 0.311E-03 -.167E-02   -.179E-04 -.115E-04 -.363E-02
   -.128E-01 -.211E-02 0.528E+00   0.135E-01 0.287E-02 -.550E+00   0.305E-03 0.311E-03 -.167E-02   -.832E-05 -.563E-05 -.362E-02
   -.124E-01 -.251E-02 0.527E+00   0.135E-01 0.287E-02 -.550E+00   0.305E-03 0.311E-03 -.167E-02   -.853E-05 -.505E-05 -.362E-02
   -.128E-01 -.211E-02 0.528E+00   0.135E-01 0.287E-02 -.550E+00   0.305E-03 0.311E-03 -.167E-02   -.863E-05 -.514E-05 -.362E-02
   -.124E-01 -.251E-02 0.527E+00   0.135E-01 0.287E-02 -.550E+00   0.305E-03 0.311E-03 -.167E-02   -.856E-05 -.568E-05 -.362E-02
   -.129E-01 -.177E-02 0.529E+00   0.135E-01 0.287E-02 -.550E+00   0.305E-03 0.311E-03 -.167E-02   0.148E-04 0.785E-05 -.360E-02
   -.122E-01 -.211E-02 0.527E+00   0.135E-01 0.287E-02 -.550E+00   0.305E-03 0.311E-03 -.167E-02   0.148E-04 0.817E-05 -.360E-02
   -.129E-01 -.177E-02 0.529E+00   0.135E-01 0.287E-02 -.550E+00   0.305E-03 0.311E-03 -.167E-02   0.147E-04 0.841E-05 -.360E-02
   -.122E-01 -.210E-02 0.527E+00   0.135E-01 0.287E-02 -.550E+00   0.305E-03 0.311E-03 -.167E-02   0.148E-04 0.793E-05 -.360E-02
   -.126E-01 -.263E-02 0.529E+00   0.135E-01 0.287E-02 -.550E+00   0.305E-03 0.311E-03 -.167E-02   0.205E-04 0.111E-04 -.359E-02
   -.117E-01 -.238E-02 0.528E+00   0.135E-01 0.287E-02 -.550E+00   0.305E-03 0.311E-03 -.167E-02   0.205E-04 0.111E-04 -.359E-02
   -.126E-01 -.263E-02 0.529E+00   0.135E-01 0.287E-02 -.550E+00   0.305E-03 0.311E-03 -.167E-02   0.201E-04 0.115E-04 -.359E-02
   -.117E-01 -.238E-02 0.528E+00   0.135E-01 0.287E-02 -.550E+00   0.305E-03 0.311E-03 -.167E-02   0.203E-04 0.113E-04 -.359E-02
   -.128E-01 -.270E-02 0.529E+00   0.135E-01 0.287E-02 -.550E+00   0.305E-03 0.311E-03 -.167E-02   0.663E-05 0.335E-05 -.359E-02
   -.128E-01 -.279E-02 0.528E+00   0.135E-01 0.287E-02 -.550E+00   0.305E-03 0.311E-03 -.167E-02   0.701E-05 0.338E-05 -.359E-02
   -.128E-01 -.270E-02 0.529E+00   0.135E-01 0.287E-02 -.550E+00   0.305E-03 0.311E-03 -.167E-02   0.691E-05 0.329E-05 -.359E-02
   -.128E-01 -.279E-02 0.528E+00   0.135E-01 0.287E-02 -.550E+00   0.305E-03 0.311E-03 -.167E-02   0.643E-05 0.345E-05 -.359E-02
   -.131E-01 -.282E-02 0.529E+00   0.135E-01 0.287E-02 -.550E+00   0.305E-03 0.311E-03 -.167E-02   -.366E-05 -.217E-05 -.361E-02
   -.141E-01 -.328E-02 0.528E+00   0.135E-01 0.287E-02 -.550E+00   0.305E-03 0.311E-03 -.167E-02   -.335E-05 -.209E-05 -.361E-02
   -.131E-01 -.282E-02 0.529E+00   0.135E-01 0.287E-02 -.550E+00   0.305E-03 0.311E-03 -.167E-02   -.310E-05 -.260E-05 -.361E-02
   -.141E-01 -.328E-02 0.528E+00   0.135E-01 0.287E-02 -.550E+00   0.305E-03 0.311E-03 -.167E-02   -.320E-05 -.271E-05 -.361E-02
   -.128E-01 -.362E-02 0.528E+00   0.135E-01 0.287E-02 -.550E+00   0.305E-03 0.311E-03 -.167E-02   -.104E-04 -.637E-05 -.362E-02
   -.134E-01 -.361E-02 0.527E+00   0.135E-01 0.287E-02 -.550E+00   0.305E-03 0.311E-03 -.167E-02   -.106E-04 -.589E-05 -.362E-02
   -.128E-01 -.362E-02 0.528E+00   0.135E-01 0.287E-02 -.550E+00   0.305E-03 0.311E-03 -.167E-02   -.102E-04 -.651E-05 -.362E-02
   -.134E-01 -.361E-02 0.527E+00   0.135E-01 0.287E-02 -.550E+00   0.305E-03 0.311E-03 -.167E-02   -.102E-04 -.697E-05 -.362E-02
   0.633E-02 0.367E-02 0.240E+04   -.257E-02 -.359E-02 -.240E+04   -.318E-02 0.155E-02 -.135E+01   -.118E-04 -.709E-05 -.187E-02
   0.553E-02 0.331E-02 0.240E+04   -.257E-02 -.359E-02 -.240E+04   -.318E-02 0.155E-02 -.135E+01   -.119E-04 -.677E-05 -.187E-02
   0.633E-02 0.367E-02 0.240E+04   -.257E-02 -.359E-02 -.240E+04   -.318E-02 0.155E-02 -.135E+01   -.118E-04 -.731E-05 -.187E-02
   0.553E-02 0.331E-02 0.240E+04   -.257E-02 -.359E-02 -.240E+04   -.318E-02 0.155E-02 -.135E+01   -.116E-04 -.782E-05 -.187E-02
[...]
   0.580E-02 0.461E-02 0.240E+04   -.257E-02 -.359E-02 -.240E+04   -.318E-02 0.155E-02 -.135E+01   0.119E-04 0.690E-05 -.186E-02
   0.598E-02 0.322E-02 0.240E+04   -.257E-02 -.359E-02 -.240E+04   -.318E-02 0.155E-02 -.135E+01   0.120E-04 0.651E-05 -.186E-02
   0.579E-02 0.390E-02 0.240E+04   -.257E-02 -.359E-02 -.240E+04   -.318E-02 0.155E-02 -.135E+01   0.134E-04 0.707E-05 -.185E-02
   0.659E-02 0.402E-02 0.240E+04   -.257E-02 -.359E-02 -.240E+04   -.318E-02 0.155E-02 -.135E+01   0.136E-04 0.721E-05 -.185E-02
   0.579E-02 0.390E-02 0.240E+04   -.257E-02 -.359E-02 -.240E+04   -.318E-02 0.155E-02 -.135E+01   0.133E-04 0.750E-05 -.185E-02
   0.659E-02 0.402E-02 0.240E+04   -.257E-02 -.359E-02 -.240E+04   -.318E-02 0.155E-02 -.135E+01   0.132E-04 0.731E-05 -.185E-02
   0.481E-02 0.322E-02 0.240E+04   -.257E-02 -.359E-02 -.240E+04   -.318E-02 0.155E-02 -.135E+01   0.106E-04 0.588E-05 -.185E-02
   0.663E-02 0.384E-02 0.240E+04   -.257E-02 -.359E-02 -.240E+04   -.318E-02 0.155E-02 -.135E+01   0.111E-04 0.592E-05 -.185E-02
   0.481E-02 0.323E-02 0.240E+04   -.257E-02 -.359E-02 -.240E+04   -.318E-02 0.155E-02 -.135E+01   0.110E-04 0.568E-05 -.185E-02
   0.663E-02 0.384E-02 0.240E+04   -.257E-02 -.359E-02 -.240E+04   -.318E-02 0.155E-02 -.135E+01   0.108E-04 0.565E-05 -.185E-02
   0.725E-02 0.442E-02 0.240E+04   -.257E-02 -.359E-02 -.240E+04   -.318E-02 0.155E-02 -.135E+01   0.452E-05 0.249E-05 -.186E-02
   0.557E-02 0.343E-02 0.240E+04   -.257E-02 -.359E-02 -.240E+04   -.318E-02 0.155E-02 -.135E+01   0.464E-05 0.267E-05 -.186E-02
   0.725E-02 0.442E-02 0.240E+04   -.257E-02 -.359E-02 -.240E+04   -.318E-02 0.155E-02 -.135E+01   0.487E-05 0.209E-05 -.186E-02
   0.557E-02 0.343E-02 0.240E+04   -.257E-02 -.359E-02 -.240E+04   -.318E-02 0.155E-02 -.135E+01   0.477E-05 0.191E-05 -.186E-02
   -.129E-02 0.135E-02 0.308E+00   -.529E-12 -.126E-11 -.759E-10   0.129E-01 0.756E-02 -.217E+00   0.911E-05 0.253E-06 -.192E+00

 POSITION                                       TOTAL-FORCE (eV/Angst)
     -1.24362      2.15447      3.99899        -0.000976     -0.001900     -0.053271
     -2.48762      4.30914      3.99899        -0.000976     -0.001900     -0.053271
     -3.73162      6.46381      3.99899        -0.000976     -0.001900     -0.053271
     -4.97562      8.61848      3.99899        -0.000976     -0.001900     -0.053271
      1.24438      2.15447      3.99899        -0.000976     -0.001900     -0.053271
      0.00038      4.30914      3.99899        -0.000976     -0.001900     -0.053271
     -1.24362      6.46381      3.99899        -0.000976     -0.001900     -0.053271
     -2.48762      8.61848      3.99899        -0.000976     -0.001900     -0.053271
      3.73238      2.15447      3.99899        -0.000976     -0.001900     -0.053271
      2.48838      4.30914      3.99899        -0.000976     -0.001900     -0.053271
      1.24438      6.46381      3.99899        -0.000976     -0.001900     -0.053271
      0.00038      8.61848      3.99899        -0.000976     -0.001900     -0.053271
      6.22038      2.15447      3.99899        -0.000976     -0.001900     -0.053271
      4.97638      4.30914      3.99899        -0.000976     -0.001900     -0.053271
      3.73238      6.46381      3.99899        -0.000976     -0.001900     -0.053271
      2.48838      8.61848      3.99899        -0.000976     -0.001900     -0.053271
      8.70838      2.15447      3.99899        -0.000976     -0.001900     -0.053271
      7.46438      4.30914      3.99899        -0.000976     -0.001900     -0.053271
      6.22038      6.46381      3.99899        -0.000976     -0.001900     -0.053271
      4.97638      8.61848      3.99899        -0.000976     -0.001900     -0.053271
     11.19638      2.15447      3.99899        -0.000976     -0.001900     -0.053271
      9.95238      4.30914      3.99899        -0.000976     -0.001900     -0.053271
      8.70838      6.46381      3.99899        -0.000976     -0.001900     -0.053271
      7.46438      8.61848      3.99899        -0.000976     -0.001900     -0.053271
     13.68438      2.15447      3.99899        -0.000976     -0.001900     -0.053271
     12.44038      4.30914      3.99899        -0.000976     -0.001900     -0.053271
     11.19638      6.46381      3.99899        -0.000976     -0.001900     -0.053271
      9.95238      8.61848      3.99899        -0.000976     -0.001900     -0.053271
      1.24386      0.71806      2.00182         0.000823      0.000315     -0.025503
     -0.00014      2.87273      2.00182         0.000823      0.000315     -0.025503
     -1.24414      5.02740      2.00182         0.000823      0.000315     -0.025503
     -2.48814      7.18207      2.00182         0.000823      0.000315     -0.025503
      3.73186      0.71806      2.00182         0.000823      0.000315     -0.025503
      2.48786      2.87273      2.00182         0.000823      0.000315     -0.025503
      1.24386      5.02740      2.00182         0.000823      0.000315     -0.025503
     -0.00014      7.18207      2.00182         0.000823      0.000315     -0.025503
      6.21986      0.71806      2.00182         0.000823      0.000315     -0.025503
      4.97586      2.87273      2.00182         0.000823      0.000315     -0.025503
      3.73186      5.02740      2.00182         0.000823      0.000315     -0.025503
      2.48786      7.18207      2.00182         0.000823      0.000315     -0.025503
      8.70786      0.71806      2.00182         0.000823      0.000315     -0.025503
      7.46386      2.87273      2.00182         0.000823      0.000315     -0.025503
      6.21986      5.02740      2.00182         0.000823      0.000315     -0.025503
      4.97586      7.18207      2.00182         0.000823      0.000315     -0.025503
     11.19586      0.71806      2.00182         0.000823      0.000315     -0.025503
      9.95186      2.87273      2.00182         0.000823      0.000315     -0.025503
      8.70786      5.02740      2.00182         0.000823      0.000315     -0.025503
      7.46386      7.18207      2.00182         0.000823      0.000315     -0.025503
     13.68386      0.71806      2.00182         0.000823      0.000315     -0.025503
     12.43986      2.87273      2.00182         0.000823      0.000315     -0.025503
     11.19586      5.02740      2.00182         0.000823      0.000315     -0.025503
      9.95186      7.18207      2.00182         0.000823      0.000315     -0.025503
     16.17186      0.71806      2.00182         0.000823      0.000315     -0.025503
     14.92786      2.87273      2.00182         0.000823      0.000315     -0.025503
     13.68386      5.02740      2.00182         0.000823      0.000315     -0.025503
     12.43986      7.18207      2.00182         0.000823      0.000315     -0.025503
     -0.00001      1.43645      0.00000         0.000152      0.001586      0.078774
     -1.24401      3.59113      0.00000         0.000152      0.001586      0.078774
     -2.48801      5.74580      0.00000         0.000152      0.001586      0.078774
     -3.73201      7.90047      0.00000         0.000152      0.001586      0.078774
[...]
      6.21999      3.59113      0.00000         0.000152      0.001586      0.078774
      4.97599      5.74580      0.00000         0.000152      0.001586      0.078774
      3.73199      7.90047      0.00000         0.000152      0.001586      0.078774
      9.95199      1.43645      0.00000         0.000152      0.001586      0.078774
      8.70799      3.59113      0.00000         0.000152      0.001586      0.078774
      7.46399      5.74580      0.00000         0.000152      0.001586      0.078774
      6.21999      7.90047      0.00000         0.000152      0.001586      0.078774
     12.43999      1.43645      0.00000         0.000152      0.001586      0.078774
     11.19599      3.59113      0.00000         0.000152      0.001586      0.078774
      9.95199      5.74580      0.00000         0.000152      0.001586      0.078774
      8.70799      7.90047      0.00000         0.000152      0.001586      0.078774
     14.92799      1.43645      0.00000         0.000152      0.001586      0.078774
     13.68399      3.59113      0.00000         0.000152      0.001586      0.078774
     12.43999      5.74580      0.00000         0.000152      0.001586      0.078774
     11.19599      7.90047      0.00000         0.000152      0.001586      0.078774
    total drift:                                0.011634      0.008910     -0.101119

  FREE ENERGIE OF THE ION-ELECTRON SYSTEM (eV)
  free  energy   TOTEN  =      -429.52413615 eV

  energy  without entropy=     -429.46636317  energy(sigma->0) =     -429.49524966

 Quasi-Newton relaxation of ions (Broydens 2nd method)
  g(Force)  = 0.236E-02   g(Stress)= 0.000E+00

 Reset! Starting new Quasi-Newton update for ions

[...]

  free energy =  -0.423311675570E+03  energy without entropy=  -0.423254130852E+03

[...]

 d Force = 0.2285337E-02[ 0.221E-02, 0.236E-02]  d Energy = 0.2364921E-02-0.796E-04
 d Force =-0.8639372E+02[-0.864E+02,-0.864E+02]  d Ewald  =-0.8639372E+02 0.167E-06

[...]

 retain information from N=  1 steps
 eigenvalues of (default step * inverse Hessian matrix)
  average eigenvalue of G=  12.3056
 eigenvalue spectrum of G is 12.3056

[...]

 d Force = 0.5897503E-03[ 0.820E-04, 0.110E-02]  d Energy = 0.7937375E-03-0.204E-03
 d Force =-0.1915145E+03[-0.192E+03,-0.191E+03]  d Ewald  =-0.1915145E+03 0.400E-05

[...]

 eigenvalue-minimisations  :  8858
 total energy-change (2. order) : 0.4246845E-04  (-0.4088106E-06)
 number of electron     840.0002963 magnetization      59.5190086
 augmentation part      518.9220206 magnetization      55.6461738

[...]

 eigenvalues of (default mixing * dielectric matrix)
  average eigenvalue GAMMA=   1.3997
  7.9056  2.4071  2.4071  1.0931  1.0503  1.0503  0.0500  0.1186  0.7640  0.6419
  0.6202  0.6202  0.4445  0.4224

[...]

--------------------------------------- Iteration      6(  16)  ---------------------------------------

 eigenvalue-minimisations  :  2448
 total energy-change (2. order) :-0.6532209E-06  (-0.2388961E-08)
 number of electron     840.0002963 magnetization      59.5182678
 augmentation part      518.9227048 magnetization      55.6456873

 DIPCOR: dipole corrections for dipol
 direction  3 min pos   135,
 dipolmoment           0.000000      0.000000     -0.000449 electrons x Angstroem
 Tr[quadrupol]    -28159.212053

 energy correction for charged system         0.000000 eV
 dipol+quadrupol energy correction           -0.000000 eV
 added-field ion interaction         -0.001810 eV  (added to PSCEN)

  free energy =  -0.423302668949E+03  energy without entropy=  -0.423246510273E+03

------------------------ aborting loop because EDIFF is reached ----------------------------------------

  Number of pair interactions contributing to vdW energy:  292488
  Edisp (eV):   -6.24354

  FORCE on cell =-STRESS in cart. coord.  units (eV):
  Direction    XX          YY          ZZ          XY          YZ          ZX
  Alpha Z  1136.49926  1136.49926  1136.49926
  Ewald  374429.05868374431.89480************    -0.15437     1.36114     0.14709
  Hartree395888.07769395891.26567************    -1.81612     0.52892     0.67305
  E(xc)   -4607.12730 -4607.10945 -4621.67639     0.02017     0.00855    -0.01946
  Local  ************************792511.22489     4.53042    -1.58599    -2.39151
  n-local  -692.64112  -687.26729  -751.03487    -2.68777    -0.19784    -0.80794
  augment 14770.53066 14768.02096 14861.14515    -0.33432    -0.07413     1.67335
  Kinetic  6486.84148  6485.51928  6595.27808    -0.19720    -0.15946     0.68463
  Fock        0.00000     0.00000     0.00000     0.00000     0.00000     0.00000
  vdW        -9.01973    -9.02144    -5.48805     0.00009    -0.00149    -0.00016
  Total     -44.60763   -44.23863    -0.88037    -0.63909    -0.12031    -0.04096
  in kB     -22.57175   -22.38503    -0.44547    -0.32339    -0.06088    -0.02073

  FREE ENERGIE OF THE ION-ELECTRON SYSTEM (eV)
  free  energy   TOTEN  =      -429.54621122 eV

  energy  without entropy=     -429.49005255  energy(sigma->0) =     -429.51813188

 d Force =-0.1637834E-04[-0.752E-04, 0.425E-04]  d Energy = 0.3531869E-04-0.517E-04
 d Force =-0.5654366E+02[-0.565E+02,-0.565E+02]  d Ewald  =-0.5654366E+02 0.167E-06

 Quasi-Newton relaxation of ions (Broydens 2nd method)
  g(Force)  = 0.866E-05   g(Stress)= 0.000E+00

 retain information from N=  1 steps
 eigenvalues of (default step * inverse Hessian matrix)
  average eigenvalue of G=   6.7967
 eigenvalue spectrum of G is  6.7967

 reached required accuracy - stopping structural energy minimisation