 vasp.5.4.4.18Apr17-6-g9f103f2a35 (build Jun 30 2017 19:19:18) complex

 executed on         MareNostrum4 date 2022.04.19  22:26:14

 INCAR:
 POTCAR:    PAW_PBE Ru 04Feb2005
 POTCAR:    PAW_PBE C 08Apr2002
 POTCAR:    PAW_PBE H 15Jun2001
 POTCAR:    PAW_PBE O 08Apr2002

 POTCAR:    PAW_PBE Ru 04Feb2005

 POTCAR:    PAW_PBE C 08Apr2002

 POTCAR:    PAW_PBE H 15Jun2001

 POTCAR:    PAW_PBE O 08Apr2002

 Optimization of the real space projectors (new method)

 maximal supplied QI-value         = 13.98
 optimisation between [QCUT,QGAM] = [ 10.77, 21.68] = [ 32.47,131.56] Ry
 Optimized for a Real-space Cutoff    1.51 Angstroem

   l    n(q)    QCUT    max X(q) W(low)/X(q) W(high)/X(q)  e(spline)
   2      9    10.768    61.733    0.26E-03    0.97E-04    0.28E-06
   2      9    10.768    59.886    0.26E-03    0.10E-03    0.29E-06
   0     10    10.768    23.358    0.12E-03    0.28E-03    0.38E-06
   0     10    10.768    11.320    0.93E-04    0.23E-03    0.31E-06
   1      9    10.768    14.765    0.48E-03    0.21E-03    0.19E-06
   1      9    10.768     8.283    0.36E-03    0.16E-03    0.15E-06
 Optimization of the real space projectors (new method)

[...]

   l    n(q)    QCUT    max X(q) W(low)/X(q) W(high)/X(q)  e(spline)
   0      8    10.603    19.460    0.37E-03    0.59E-03    0.23E-06
   0      8    10.603    12.209    0.35E-03    0.56E-03    0.22E-06
   1      7    10.603     4.655    0.70E-04    0.28E-03    0.29E-06
 Optimization of the real space projectors (new method)

 maximal supplied QI-value         = 24.76
 optimisation between [QCUT,QGAM] = [ 10.64, 21.54] = [ 31.73,129.89] Ry
 Optimized for a Real-space Cutoff    1.23 Angstroem

   l    n(q)    QCUT    max X(q) W(low)/X(q) W(high)/X(q)  e(spline)
   0      8    10.645    20.381    0.38E-03    0.60E-03    0.15E-06
   0      8    10.645    15.268    0.40E-03    0.65E-03    0.17E-06
   1      7    10.645     5.964    0.30E-03    0.63E-03    0.18E-06
   1      7    10.645     5.382    0.24E-03    0.53E-03    0.16E-06
  PAW_PBE Ru 04Feb2005                  :
  PAW_PBE C 08Apr2002                   :
  PAW_PBE H 15Jun2001                   :
  PAW_PBE O 08Apr2002                   :

 POSCAR: Ru  C  H  O
  positions in cartesian coordinates
 exchange correlation table for  LEXCH =        8
   RHO(1)=    0.500       N(1)  =     2000
   RHO(2)=  100.500       N(2)  =     4000

 ion  position               nearest neighbor table
   1  0.048  0.167  0.200- 122 2.47  30 2.66  53 2.66  29 2.66   2 2.71   4 2.71   6 2.71  28 2.71
                            25 2.71   5 2.71
   2  0.048  0.417  0.200-  31 2.66  54 2.66  30 2.66   3 2.71   1 2.71  25 2.71   7 2.71  26 2.71
                             6 2.71
   3  0.048  0.667  0.200-  32 2.66  55 2.66  31 2.66   4 2.71   2 2.71  26 2.71   8 2.71  27 2.71
                             7 2.71
   4  0.048  0.917  0.200-  29 2.66  56 2.66  32 2.66   3 2.71   1 2.71  27 2.71   5 2.71  28 2.71
                             8 2.71
   5  0.190  0.167  0.200-  85 2.14  90 2.56  86 2.60  34 2.66  29 2.66  33 2.66  10 2.71   8 2.71
                             6 2.71   4 2.71   9 2.71   1 2.71
   6  0.190  0.417  0.200-  89 2.14  90 2.55  88 2.58  35 2.66  30 2.66  34 2.66  11 2.71   7 2.71
                             5 2.71   1 2.71  10 2.71   2 2.71
   7  0.190  0.667  0.200-  36 2.66  31 2.66  35 2.66  12 2.71   6 2.71   8 2.71   2 2.71  11 2.71
                             3 2.71
   8  0.190  0.917  0.200-  33 2.66  32 2.66  36 2.66   9 2.71   5 2.71   7 2.71   3 2.71  12 2.71
                             4 2.71
   9  0.333  0.167  0.200-  86 2.59  38 2.66  33 2.66  37 2.66   8 2.71  10 2.71  12 2.71  14 2.71
                             5 2.71  13 2.71
  10  0.333  0.417  0.200-  87 2.13  88 2.44  86 2.47  39 2.66  34 2.66  38 2.66   5 2.71   9 2.71
                            11 2.71  15 2.71   6 2.71  14 2.71
  11  0.333  0.667  0.200-  88 2.58  40 2.66  35 2.66  39 2.66   6 2.71  10 2.71  12 2.71  16 2.71
                             7 2.71  15 2.71
  12  0.333  0.917  0.200-  37 2.66  36 2.66  40 2.66   7 2.71  11 2.71   9 2.71  13 2.71   8 2.71
                            16 2.71
  13  0.476  0.167  0.200-  95 2.17  42 2.66  37 2.66  41 2.66  18 2.71  16 2.71  14 2.71  12 2.71
                            17 2.71   9 2.71
  14  0.476  0.417  0.200- 124 2.21  43 2.66  38 2.66  42 2.66  19 2.71  15 2.71  13 2.71   9 2.71
                            18 2.71  10 2.71
  15  0.476  0.667  0.200- 125 2.35  44 2.66  39 2.66  43 2.66  20 2.71  16 2.71  14 2.71  10 2.71
                            19 2.71  11 2.71
  16  0.476  0.917  0.200-  41 2.66  40 2.66  44 2.66  17 2.71  13 2.71  15 2.71  11 2.71  20 2.71
                            12 2.71
  17  0.619  0.167  0.200-  99 2.22  97 2.32  46 2.66  41 2.66  45 2.66  16 2.71  20 2.71  18 2.71
                            22 2.71  13 2.71  21 2.71
  18  0.619  0.417  0.200-  94 2.25  96 2.28  47 2.66  42 2.66  46 2.66  13 2.71  19 2.71  17 2.71
                            23 2.71  14 2.71  22 2.71
  19  0.619  0.667  0.200-  48 2.66  43 2.66  47 2.66  14 2.71  20 2.71  18 2.71  24 2.71  15 2.71
                            23 2.71
  20  0.619  0.917  0.200-  45 2.66  44 2.66  48 2.66  15 2.71  19 2.71  17 2.71  21 2.71  16 2.71
                            24 2.71
  21  0.762  0.167  0.200-  50 2.66  45 2.66  49 2.66  26 2.71  22 2.71  24 2.71  20 2.71  25 2.71
                            17 2.71
  22  0.762  0.417  0.200-  98 2.39  51 2.66  46 2.66  50 2.66  27 2.71  23 2.71  21 2.71  17 2.71
                            26 2.71  18 2.71
  23  0.762  0.667  0.200-  52 2.66  47 2.66  51 2.66  28 2.71  22 2.71  24 2.71  18 2.71  27 2.71
                            19 2.71
  24  0.762  0.917  0.200-  49 2.66  48 2.66  52 2.66  25 2.71  21 2.71  23 2.71  19 2.71  28 2.71
                            20 2.71
  25  0.905  0.167  0.200-  54 2.66  49 2.66  53 2.66  24 2.71  28 2.71  26 2.71   2 2.71  21 2.71
                             1 2.71
  26  0.905  0.417  0.200-  55 2.66  50 2.66  54 2.66  21 2.71  27 2.71  25 2.71   3 2.71  22 2.71
                             2 2.71
  27  0.905  0.667  0.200-  56 2.66  51 2.66  55 2.66  22 2.71  28 2.71  26 2.71   4 2.71  23 2.71
                             3 2.71
  28  0.905  0.917  0.200-  53 2.66  52 2.66  56 2.66  23 2.71  27 2.71  25 2.71   1 2.71  24 2.71
                             4 2.71
  29  0.095  0.083  0.100-   4 2.66   5 2.66   1 2.66  60 2.66  61 2.66  57 2.66  56 2.71  30 2.71
                            32 2.71  34 2.71  53 2.71  33 2.71
  30  0.095  0.333  0.100-   1 2.66   6 2.66   2 2.66  57 2.66  62 2.66  58 2.66  53 2.71  29 2.71
                            31 2.71  35 2.71  54 2.71  34 2.71
  31  0.095  0.583  0.100-   2 2.66   7 2.66   3 2.66  58 2.66  63 2.66  59 2.66  54 2.71  30 2.71
                            32 2.71  36 2.71  55 2.71  35 2.71
  32  0.095  0.833  0.100-   3 2.66   8 2.66   4 2.66  59 2.66  64 2.66  60 2.66  55 2.71  29 2.71
                            31 2.71  33 2.71  56 2.71  36 2.71
  33  0.238  0.083  0.100-   8 2.66   9 2.66   5 2.66  64 2.66  65 2.66  61 2.66  38 2.71  34 2.71
                            36 2.71  32 2.71  37 2.71  29 2.71
  34  0.238  0.333  0.100-   5 2.66  10 2.66   6 2.66  61 2.66  66 2.66  62 2.66  39 2.71  33 2.71
                            35 2.71  29 2.71  38 2.71  30 2.71
  35  0.238  0.583  0.100-   6 2.66  11 2.66   7 2.66  62 2.66  67 2.66  63 2.66  40 2.71  34 2.71
                            36 2.71  30 2.71  39 2.71  31 2.71
  36  0.238  0.833  0.100-   7 2.66  12 2.66   8 2.66  63 2.66  68 2.66  64 2.66  37 2.71  33 2.71
                            35 2.71  31 2.71  40 2.71  32 2.71
  37  0.381  0.083  0.100-  12 2.66  13 2.66   9 2.66  68 2.66  69 2.66  65 2.66  36 2.71  40 2.71
                            38 2.71  42 2.71  33 2.71  41 2.71
  38  0.381  0.333  0.100-   9 2.66  14 2.66  10 2.66  65 2.66  70 2.66  66 2.66  33 2.71  39 2.71
                            37 2.71  43 2.71  34 2.71  42 2.71
  39  0.381  0.583  0.100-  10 2.66  15 2.66  11 2.66  66 2.66  71 2.66  67 2.66  34 2.71  40 2.71
                            38 2.71  44 2.71  35 2.71  43 2.71
  40  0.381  0.833  0.100-  11 2.66  16 2.66  12 2.66  67 2.66  72 2.66  68 2.66  35 2.71  39 2.71
                            37 2.71  41 2.71  36 2.71  44 2.71
  41  0.524  0.083  0.100-  16 2.66  17 2.66  13 2.66  72 2.66  73 2.66  69 2.66  46 2.71  42 2.71
                            44 2.71  40 2.71  45 2.71  37 2.71
  42  0.524  0.333  0.100-  13 2.66  18 2.66  14 2.66  69 2.66  74 2.66  70 2.66  47 2.71  41 2.71
                            43 2.71  37 2.71  46 2.71  38 2.71
  43  0.524  0.583  0.100-  14 2.66  19 2.66  15 2.66  70 2.66  75 2.66  71 2.66  48 2.71  42 2.71
                            44 2.71  38 2.71  47 2.71  39 2.71
  44  0.524  0.833  0.100-  15 2.66  20 2.66  16 2.66  71 2.66  76 2.66  72 2.66  45 2.71  41 2.71
                            43 2.71  39 2.71  48 2.71  40 2.71
  45  0.667  0.083  0.100-  20 2.66  21 2.66  17 2.66  76 2.66  77 2.66  73 2.66  44 2.71  48 2.71
                            46 2.71  50 2.71  41 2.71  49 2.71
  46  0.667  0.333  0.100-  17 2.66  22 2.66  18 2.66  73 2.66  78 2.66  74 2.66  41 2.71  47 2.71
                            45 2.71  51 2.71  42 2.71  50 2.71
  47  0.667  0.583  0.100-  18 2.66  23 2.66  19 2.66  74 2.66  79 2.66  75 2.66  42 2.71  48 2.71
                            46 2.71  52 2.71  43 2.71  51 2.71
  48  0.667  0.833  0.100-  19 2.66  24 2.66  20 2.66  75 2.66  80 2.66  76 2.66  43 2.71  47 2.71
                            45 2.71  49 2.71  44 2.71  52 2.71
  49  0.810  0.083  0.100-  24 2.66  25 2.66  21 2.66  80 2.66  81 2.66  77 2.66  52 2.71  50 2.71
                            54 2.71  48 2.71  45 2.71  53 2.71
  50  0.810  0.333  0.100-  21 2.66  26 2.66  22 2.66  77 2.66  82 2.66  78 2.66  51 2.71  49 2.71
                            55 2.71  45 2.71  46 2.71  54 2.71
  51  0.810  0.583  0.100-  22 2.66  27 2.66  23 2.66  78 2.66  83 2.66  79 2.66  52 2.71  50 2.71
                            56 2.71  46 2.71  47 2.71  55 2.71
  52  0.810  0.833  0.100-  23 2.66  28 2.66  24 2.66  79 2.66  84 2.66  80 2.66  51 2.71  49 2.71
                            53 2.71  47 2.71  56 2.71  48 2.71
  53  0.952  0.083  0.100-  28 2.66   1 2.66  25 2.66  84 2.66  57 2.66  81 2.66  30 2.71  56 2.71
                            54 2.71  52 2.71  29 2.71  49 2.71
  54  0.952  0.333  0.100-  25 2.66   2 2.66  26 2.66  81 2.66  58 2.66  82 2.66  31 2.71  55 2.71
                            53 2.71  49 2.71  30 2.71  50 2.71
  55  0.952  0.583  0.100-  26 2.66   3 2.66  27 2.66  82 2.66  59 2.66  83 2.66  32 2.71  56 2.71
                            54 2.71  50 2.71  31 2.71  51 2.71
  56  0.952  0.833  0.100-  27 2.66   4 2.66  28 2.66  83 2.66  60 2.66  84 2.66  29 2.71  55 2.71
                            53 2.71  51 2.71  32 2.71  52 2.71
  57  0.048  0.167  0.000-  30 2.66  53 2.66  29 2.66  58 2.71  60 2.71  62 2.71  84 2.71  81 2.71
                            61 2.71
  58  0.048  0.417  0.000-  31 2.66  54 2.66  30 2.66  57 2.71  59 2.71  63 2.71  81 2.71  62 2.71
                            82 2.71
[...]
   -.148E+02 -.299E+02 0.294E+03   0.148E+02 0.298E+02 -.294E+03   -.206E-02 0.184E+00 -.149E-01   -.834E-03 0.543E-03 -.249E-01
   -.578E+02 -.106E+02 0.265E+03   0.576E+02 0.107E+02 -.265E+03   0.220E+00 -.176E+00 -.106E+00   -.154E-02 0.112E-02 -.269E-01
   -.684E+02 -.937E+01 0.317E+03   0.685E+02 0.936E+01 -.317E+03   0.231E-01 -.931E-01 -.568E+00   -.562E-03 -.131E-02 -.241E-01
   -.503E+02 -.519E+02 0.317E+03   0.504E+02 0.517E+02 -.317E+03   -.434E-01 0.289E+00 -.156E+00   0.103E-02 -.117E-02 -.236E-01
   -.399E+02 -.531E+02 0.267E+03   0.399E+02 0.531E+02 -.267E+03   -.614E-01 -.531E-01 0.327E+00   -.218E-03 0.612E-03 -.253E-01
   -.295E+02 -.239E+02 0.213E+03   0.295E+02 0.240E+02 -.213E+03   0.261E-01 -.361E-01 0.170E+00   -.316E-03 -.478E-03 -.276E-01
   -.567E+02 -.114E+02 0.228E+03   0.566E+02 0.115E+02 -.228E+03   0.178E+00 -.110E+00 -.296E+00   -.276E-02 -.123E-02 -.262E-01
   -.575E+02 -.267E+02 0.251E+03   0.576E+02 0.265E+02 -.251E+03   -.326E-01 0.141E+00 -.134E+00   -.140E-02 -.216E-03 -.258E-01
   -.306E+02 -.386E+02 0.236E+03   0.306E+02 0.385E+02 -.236E+03   -.272E-01 0.170E-02 0.136E+00   0.135E-02 0.126E-03 -.274E-01
   0.267E+02 0.202E+01 0.222E+03   -.266E+02 -.190E+01 -.222E+03   -.145E+00 -.109E+00 0.458E-01   0.177E-02 -.819E-03 -.280E-01
   0.139E+02 -.356E+01 0.202E+03   -.138E+02 0.357E+01 -.201E+03   -.469E-02 -.906E-04 0.147E+00   0.120E-02 -.172E-02 -.266E-01
   -.107E+02 0.728E+01 0.203E+03   0.107E+02 -.728E+01 -.203E+03   -.612E-02 0.178E-02 -.293E-01   -.109E-02 0.119E-02 -.253E-01
   0.106E+01 0.122E+02 0.222E+03   -.100E+01 -.121E+02 -.221E+03   0.268E-01 -.188E-01 0.134E+00   -.677E-03 0.205E-02 -.272E-01
   0.209E+02 0.779E+01 0.143E+04   -.208E+02 -.768E+01 -.143E+04   -.995E-01 -.580E-01 -.373E+01   0.282E-03 -.160E-02 -.120E-01
   0.190E+02 0.360E+01 0.142E+04   -.190E+02 -.359E+01 -.142E+04   0.278E-01 0.408E-01 -.383E+01   0.158E-02 -.161E-02 -.131E-01
   0.110E+02 0.107E+02 0.142E+04   -.110E+02 -.107E+02 -.141E+04   0.125E-01 0.148E-01 -.369E+01   -.210E-03 0.197E-02 -.142E-01
   0.127E+02 0.147E+02 0.143E+04   -.127E+02 -.147E+02 -.142E+04   0.155E-01 0.198E-01 -.387E+01   -.131E-02 0.143E-02 -.129E-01
[...]
   -.856E+02 -.183E+02 -.211E+03   0.899E+02 0.206E+02 0.214E+03   -.432E+01 -.239E+01 -.282E+01   -.930E-04 -.159E-04 0.475E-03
   -.749E+02 0.302E+02 -.208E+03   0.796E+02 -.329E+02 0.210E+03   -.480E+01 0.264E+01 -.183E+01   -.124E-03 -.116E-04 0.496E-03
   0.346E+02 0.923E+01 -.219E+03   -.379E+02 -.963E+01 0.223E+03   0.334E+01 0.405E+00 -.459E+01   -.385E-04 -.202E-04 0.909E-03
   -.559E+02 0.376E+02 -.208E+03   0.608E+02 -.402E+02 0.209E+03   -.485E+01 0.260E+01 -.121E+01   -.136E-04 -.318E-04 0.737E-03
   -.658E+02 -.588E+02 -.146E+03   0.722E+02 0.592E+02 0.141E+03   -.642E+01 -.305E+00 0.452E+01   -.756E-04 -.746E-04 0.534E-03
   -.674E+02 -.342E+02 -.151E+03   0.710E+02 0.349E+02 0.147E+03   -.362E+01 -.661E+00 0.416E+01   -.486E-04 -.123E-03 0.496E-03
   -.112E+02 -.818E+02 -.191E+03   0.941E+01 0.871E+02 0.192E+03   0.179E+01 -.531E+01 -.157E+01   -.516E-04 -.219E-04 0.727E-03
   -.608E+02 0.305E+01 -.216E+03   0.634E+02 -.555E+01 0.221E+03   -.261E+01 0.256E+01 -.427E+01   -.939E-05 -.510E-04 0.817E-03
   0.377E+03 0.695E+02 -.118E+04   -.420E+03 -.517E+02 0.119E+04   0.425E+02 -.178E+02 -.718E+01   0.101E-02 -.551E-05 0.300E-02
   0.160E+03 0.228E+03 -.121E+04   -.194E+03 -.235E+03 0.123E+04   0.347E+02 0.754E+01 -.196E+02   0.491E-03 0.121E-04 0.314E-02
   0.872E+01 -.316E+02 -.916E+03   -.160E+02 0.557E+02 0.896E+03   0.733E+01 -.242E+02 0.201E+02   0.210E-03 -.158E-03 0.139E-02
   0.103E+03 -.330E+03 -.996E+03   -.125E+03 0.346E+03 0.970E+03   0.225E+02 -.168E+02 0.254E+02   -.270E-03 -.553E-03 0.133E-02
   -.311E+02 -.353E+03 -.113E+04   0.104E+02 0.388E+03 0.115E+04   0.207E+02 -.348E+02 -.171E+02   -.418E-03 -.470E-03 0.372E-02
   -.951E+02 -.230E+03 -.110E+04   0.619E+02 0.246E+03 0.111E+04   0.332E+02 -.167E+02 -.689E+01   -.593E-03 -.942E-03 0.230E-02
   -.113E+03 0.732E+02 0.794E+02   0.455E-12 0.796E-12 0.114E-11   0.113E+03 -.732E+02 -.779E+02   0.533E-03 0.698E-04 -.139E+01

 POSITION                                       TOTAL-FORCE (eV/Angst)
     -0.00001      1.56613      4.29100        -0.584526     -0.234081     -0.894919
     -1.35631      3.91531      4.29100        -0.379214      0.189240     -1.177573
     -2.71261      6.26449      4.29100        -0.015316     -0.030867     -1.001278
     -4.06891      8.61367      4.29100        -0.109102     -0.450207     -1.075648
      2.71259      1.56613      4.29100         0.133625     -0.856211     -0.352141
      1.35629      3.91531      4.29100        -0.585943      0.418215     -0.818702
     -0.00001      6.26449      4.29100        -0.288514      0.249963     -1.128725
     -1.35631      8.61367      4.29100         0.024028     -0.381763     -1.144801
      5.42519      1.56613      4.29100         0.139078     -0.277796     -0.981699
      4.06889      3.91531      4.29100         0.903225      0.479310     -0.407327
      2.71259      6.26449      4.29100        -0.157993      0.435262     -0.915101
      1.35629      8.61367      4.29100        -0.073547     -0.167782     -1.108442
      8.13779      1.56613      4.29100        -0.020694     -0.248016     -0.718038
      6.78149      3.91531      4.29100         0.081152      0.281428     -1.541626
      5.42519      6.26449      4.29100         0.229776      0.158887     -0.565569
      4.06889      8.61367      4.29100        -0.088557     -0.354762     -1.175946
     10.85039      1.56613      4.29100         0.527961     -0.438584     -0.536391
      9.49409      3.91531      4.29100        -0.154023      0.493618     -0.259297
      8.13779      6.26449      4.29100         0.024855      0.644168     -1.407847
      6.78149      8.61367      4.29100         0.341600     -0.163904     -1.186967
     13.56299      1.56613      4.29100         0.380046     -0.403415     -1.231348
     12.20669      3.91531      4.29100        -0.307194      0.154243     -0.032424
     10.85039      6.26449      4.29100         0.076805      0.551176     -1.489271
      9.49409      8.61367      4.29100        -0.029001      0.058902     -0.959633
     16.27559      1.56613      4.29100        -0.065607     -0.009778     -1.026552
     14.91929      3.91531      4.29100         0.052059      0.069063     -1.004027
     13.56299      6.26449      4.29100         0.142409      0.119366     -1.054678
     12.20669      8.61367      4.29100         0.001152     -0.052271     -0.996630
      1.35631      0.78305      2.14564        -0.053554      0.123201     -0.100004
      0.00001      3.13223      2.14564         0.032109     -0.083144     -0.107362
     -1.35629      5.48141      2.14564         0.069859     -0.064185      0.003593
     -2.71259      7.83059      2.14564         0.043914      0.033789     -0.027660
      4.06891      0.78305      2.14564         0.087807      0.054127     -0.056832
      2.71261      3.13223      2.14564        -0.065208      0.022042     -1.215870
      1.35631      5.48141      2.14564         0.037597      0.026667     -0.057939
      0.00001      7.83059      2.14564        -0.019923     -0.060848      0.299735
      6.78151      0.78305      2.14564        -0.155896     -0.025047      0.018976
      5.42521      3.13223      2.14564         0.004116     -0.122015     -0.019078
      4.06891      5.48141      2.14564        -0.080117      0.013446     -0.087615
      2.71261      7.83059      2.14564        -0.015068     -0.038309      0.230018
      9.49411      0.78305      2.14564        -0.152323     -0.219595     -0.465360
      8.13781      3.13223      2.14564        -0.275922     -0.030993     -0.323446
      6.78151      5.48141      2.14564        -0.015432     -0.008585      0.023890
      5.42521      7.83059      2.14564        -0.020925      0.034689      0.184557
     12.20671      0.78305      2.14564        -0.032235     -0.043223     -0.020283
     10.85041      3.13223      2.14564         0.041191     -0.100556     -0.609006
      9.49411      5.48141      2.14564         0.042883      0.092522     -0.242287
      8.13781      7.83059      2.14564        -0.094086     -0.080286      0.400808
     14.91931      0.78305      2.14564        -0.033037      0.035520      0.258272
     13.56301      3.13223      2.14564         0.079303      0.046136     -0.281146
     12.20671      5.48141      2.14564         0.056951     -0.037799     -0.086394
     10.85041      7.83059      2.14564        -0.023481     -0.039962      0.206742
     17.63191      0.78305      2.14564         0.045520      0.010643      0.220559
     16.27561      3.13223      2.14564         0.065118      0.006678      0.216272
     14.91931      5.48141      2.14564        -0.020118      0.001337     -0.006950
     13.56301      7.83059      2.14564         0.083625      0.043738      0.197452
     -0.00001      1.56613      0.00000         0.063588      0.051776      0.918421
     -1.35631      3.91531      0.00000         0.064411      0.054764      0.950781
     -2.71261      6.26449      0.00000         0.011366      0.012395      1.016885
     -4.06891      8.61367      0.00000         0.013779      0.018318      0.952164
[...]
      9.99280      0.28134      6.74517         0.007872      0.004325      0.004436
     12.00213      4.01266      6.98599        -0.013160     -0.021573      0.006956
     12.07650      1.57884      6.77614         0.000853     -0.002782     -0.001489
      6.53793      4.53942      9.62292         0.001301      0.004485      0.007456
      8.14826      4.10714      8.97106         0.000766     -0.002006     -0.002116
      8.23480      6.02432      7.92208        -0.002371      0.006376     -0.004695
     11.60191      6.26539      6.69479        -0.006454     -0.001162      0.002510
     10.54442      7.14345      7.85067         0.005653     -0.005127     -0.002729
     11.40142      5.63953      8.38107        -0.010869      0.003772     -0.003222
      0.41559      1.84300      6.70799         0.001510     -0.028346      0.010936
      2.68203      0.62474      7.29065        -0.005188      0.022494     -0.027643
      7.41545      4.10237      6.40460        -0.010746     -0.021392      0.022679
      5.40072      5.96606      6.62674        -0.019533     -0.016067      0.009628
      7.42634      6.01254      8.49322        -0.007907     -0.003559     -0.000992
      9.71794      5.42397      7.15126         0.010734     -0.011722      0.008458
    total drift:                                0.047302     -0.012860      0.075571

  FREE ENERGIE OF THE ION-ELECTRON SYSTEM (eV)
  free  energy   TOTEN  =      -995.71962560 eV

  energy  without entropy=     -995.68471629  energy(sigma->0) =     -995.70217094

[...]

  free energy =  -0.986331758981E+03  energy without entropy=  -0.986296870655E+03

[...]

 d Force = 0.6993474E-03[ 0.489E-03, 0.910E-03]  d Energy = 0.7316819E-03-0.323E-04
 d Force = 0.4961193E+01[ 0.496E+01, 0.496E+01]  d Ewald  = 0.4961194E+01-0.526E-06

 Steepest descent step on ions:
 trial-energy change:   -0.000732  1 .order   -0.000699   -0.000910   -0.000489
  (g-gl).g = 0.910E-03      g.g   = 0.910E-03  gl.gl    = 0.000E+00
 g(Force)  = 0.910E-03   g(Stress)= 0.000E+00 ortho     = 0.000E+00
 gamma     =   0.00000
 trial     =   1.00000
 opt step  =   2.15948  (harmonic =   2.15948) maximal distance =0.00290166
 next E    =  -995.720608   (d E  =  -0.00098)

[...]

 d Force = 0.2778236E-03[-0.109E-04, 0.567E-03]  d Energy = 0.2724500E-03 0.537E-05
 d Force = 0.5751039E+01[ 0.575E+01, 0.575E+01]  d Ewald  = 0.5751039E+01-0.129E-06

[...]

 Conjugate gradient step on ions:
 trial-energy change:   -0.000520  1 .order   -0.000508   -0.000556   -0.000460
  (g-gl).g = 0.915E-03      g.g   = 0.906E-03  gl.gl    = 0.910E-03
 g(Force)  = 0.906E-03   g(Stress)= 0.000E+00 ortho     =-0.941E-05
 gamma     =   1.00589
 trial     =   0.62012
 opt step  =   2.48047  (harmonic =   3.58024) maximal distance =0.00578105
 next E    =  -995.722235   (d E  =  -0.00160)

[...]

 Conjugate gradient step on ions:
 trial-energy change:   -0.000618  1 .order   -0.000623   -0.000820   -0.000426
  (g-gl).g = 0.733E-03      g.g   = 0.802E-03  gl.gl    = 0.906E-03
 g(Force)  = 0.802E-03   g(Stress)= 0.000E+00 ortho     = 0.341E-04
 gamma     =   0.80959
 trial     =   0.98765
 opt step  =   2.05397  (harmonic =   2.05397) maximal distance =0.00452472
 next E    =  -995.722903   (d E  =  -0.00085)

[...]

 d Force = 0.6477147E-05[-0.191E-05, 0.149E-04]  d Energy =-0.9712512E-05 0.162E-04
 d Force = 0.1895132E+01[ 0.190E+01, 0.190E+01]  d Ewald  = 0.1895131E+01 0.150E-06

[...]

 d Force = 0.1795315E-03[-0.759E-05, 0.367E-03]  d Energy = 0.1775561E-03 0.198E-05
 d Force = 0.6300877E+01[ 0.630E+01, 0.630E+01]  d Ewald  = 0.6300876E+01 0.572E-06

 Conjugate gradient step on ions:
 trial-energy change:   -0.000178  1 .order   -0.000180   -0.000367    0.000008
  (g-gl).g = 0.181E-03      g.g   = 0.193E-03  gl.gl    = 0.193E-03
 g(Force)  = 0.193E-03   g(Stress)= 0.000E+00 ortho     =-0.279E-05
 gamma     =   0.93700
 trial     =   1.92905
 opt step  =   1.88991  (harmonic =   1.88991) maximal distance =0.00199086
 next E    =  -995.726142   (d E  =  -0.00018)

[...]

 d Force = 0.7442678E-07[-0.520E-08, 0.154E-06]  d Energy =-0.2290427E-06 0.303E-06
 d Force =-0.1278447E+00[-0.128E+00,-0.128E+00]  d Ewald  =-0.1278447E+00 0.873E-10

[...]

 eigenvalue-minimisations  :  4041
 total energy-change (2. order) :-0.2443844E-04  (-0.7240818E-05)
 number of electron     796.0000091 magnetization
 augmentation part      236.8469539 magnetization

[...]

 eigenvalues of (default mixing * dielectric matrix)
  average eigenvalue GAMMA=   0.6193
  1.2752  0.4783  0.1045

[...]

--------------------------------------- Iteration     23(   5)  ---------------------------------------

 eigenvalue-minimisations  :  2840
 total energy-change (2. order) : 0.4012531E-05  (-0.1823925E-05)
 number of electron     796.0000091 magnetization
 augmentation part      236.8470108 magnetization

 DIPCOR: dipole corrections for dipol
 direction  3 min pos   151,
 dipolmoment           0.000000      0.000000     -1.682825 electrons x Angstroem
 Tr[quadrupol]    -33680.025050

 energy correction for charged system         0.000000 eV
 dipol+quadrupol energy correction           -0.067615 eV
 added-field ion interaction        -47.027553 eV  (added to PSCEN)

  free energy =  -0.986346714708E+03  energy without entropy=  -0.986311967503E+03

------------------------ aborting loop because EDIFF is reached ----------------------------------------

  Number of pair interactions contributing to vdW energy:  560654
  Edisp (eV):   -9.37955

  FORCE on cell =-STRESS in cart. coord.  units (eV):
  Direction    XX          YY          ZZ          XY          YZ          ZX
  Alpha Z  1114.32634  1114.32634  1114.32634
  Ewald  205429.43254204558.02047************   -72.70445   365.23141   278.93913
  Hartree214541.09229213790.99507************  -143.25306   367.50314   249.55107
  E(xc)   -3651.03462 -3650.35854 -3657.00412    -0.07077    -0.22821    -0.05375
  Local  ************************430245.06579   222.79397  -750.71749  -540.33988
  n-local   657.73807   657.73472   466.97576     2.51861    -1.65376    -0.31522
  augment  3839.05320  3833.76759  3854.28626     0.05469     1.27946     0.58763
  Kinetic  9846.02005  9828.84671 10007.48291    -8.51258    18.49197    11.72716
  Fock        0.00000     0.00000     0.00000     0.00000     0.00000     0.00000
  vdW       -10.13924   -10.05550    -8.47714     0.01680    -0.11477     0.02867
  Total    -103.20081   -99.05922  -116.19986     0.84321    -0.20826     0.12481
  in kB     -43.22973   -41.49486   -48.67490     0.35321    -0.08724     0.05228

  FREE ENERGIE OF THE ION-ELECTRON SYSTEM (eV)
  free  energy   TOTEN  =      -995.72626266 eV

  energy  without entropy=     -995.69151545  energy(sigma->0) =     -995.70888905

 d Force = 0.1183274E-03[ 0.574E-04, 0.179E-03]  d Energy = 0.1228791E-03-0.455E-05
 d Force = 0.1226010E+01[ 0.123E+01, 0.123E+01]  d Ewald  = 0.1226009E+01 0.260E-06

 Conjugate gradient step on ions:
 trial-energy change:   -0.000123  1 .order   -0.000118   -0.000179   -0.000057
  (g-gl).g = 0.801E-04      g.g   = 0.932E-04  gl.gl    = 0.193E-03
 g(Force)  = 0.932E-04   g(Stress)= 0.000E+00 ortho     = 0.133E-06
 gamma     =   0.41581
 trial     =   1.92122
 opt step  =   2.82673  (harmonic =   2.82673) maximal distance =0.00141937
 next E    =  -995.726272   (d E  =  -0.00013)

 reached required accuracy - stopping structural energy minimisation