 vasp.5.4.4.18Apr17-6-g9f103f2a35 (build Jun 30 2017 19:19:18) complex

 executed on         MareNostrum4 date 2022.06.21  21:17:17

 INCAR:
 POTCAR:    PAW_PBE Au 04Oct2007
 POTCAR:    PAW_PBE O 08Apr2002
 POTCAR:    PAW_PBE C 08Apr2002
 POTCAR:    PAW_PBE N 08Apr2002
 POTCAR:    PAW_PBE H 15Jun2001
 POTCAR:    PAW_PBE Au 04Oct2007

 POTCAR:    PAW_PBE O 08Apr2002

[...]

 POTCAR:    PAW_PBE N 08Apr2002

 POTCAR:    PAW_PBE H 15Jun2001

 Optimization of the real space projectors (new method)

 maximal supplied QI-value         = 15.12
 optimisation between [QCUT,QGAM] = [ 10.73, 21.62] = [ 32.26,130.87] Ry
 Optimized for a Real-space Cutoff    1.42 Angstroem

   l    n(q)    QCUT    max X(q) W(low)/X(q) W(high)/X(q)  e(spline)
   2      8    10.734    60.898    0.15E-03    0.34E-03    0.26E-06
   2      8    10.734    58.894    0.16E-03    0.35E-03    0.27E-06
   0      9    10.734   109.617    0.92E-04    0.16E-03    0.12E-06
   0      9    10.734    75.026    0.89E-04    0.15E-03    0.11E-06
   1      9    10.734    16.344    0.25E-03    0.88E-04    0.14E-06
   1      9    10.734    10.160    0.20E-03    0.77E-04    0.11E-06
 Optimization of the real space projectors (new method)

[...]

   l    n(q)    QCUT    max X(q) W(low)/X(q) W(high)/X(q)  e(spline)
   0      8    10.807    79.467    0.34E-03    0.68E-03    0.21E-06
   0      8    10.807    66.151    0.34E-03    0.67E-03    0.21E-06
   1      7    10.807    14.030    0.45E-03    0.13E-02    0.11E-05
   1      7    10.807     9.831    0.48E-03    0.13E-02    0.11E-05
 Optimization of the real space projectors (new method)

 maximal supplied QI-value         = 34.20
 optimisation between [QCUT,QGAM] = [ 10.60, 21.55] = [ 31.48,130.03] Ry
 Optimized for a Real-space Cutoff    1.23 Angstroem

   l    n(q)    QCUT    max X(q) W(low)/X(q) W(high)/X(q)  e(spline)
   0      8    10.603    19.460    0.37E-03    0.59E-03    0.23E-06
   0      8    10.603    12.209    0.35E-03    0.56E-03    0.22E-06
   1      7    10.603     4.655    0.70E-04    0.28E-03    0.29E-06
  PAW_PBE Au 04Oct2007                  :
  PAW_PBE O 08Apr2002                   :
  PAW_PBE C 08Apr2002                   :
  PAW_PBE N 08Apr2002                   :
  PAW_PBE H 15Jun2001                   :

 POSCAR: Au  O  C  N  H
  positions in direct lattice
  velocities in cartesian coordinates
 exchange correlation table for  LEXCH =        8
   RHO(1)=    0.500       N(1)  =     2000
   RHO(2)=  100.500       N(2)  =     4000

 ion  position               nearest neighbor table
   1  0.000  0.000  0.000- 102 2.94  57 2.94  13 2.94 101 2.94   2 2.94 156 2.94  56 2.94  68 2.94
                           114 2.94
   2  0.083  0.083  0.000-   3 2.94   7 2.94   4 2.94 102 2.94  14 2.94  15 2.94   1 2.94  57 2.94
                            13 2.94
   3  0.167  0.167  0.000-   2 2.94   4 2.94   7 2.94  15 2.94   5 2.94  19 2.94  10 2.94   8 2.94
                            17 2.94
   4  0.250  0.000  0.000-   3 2.94   2 2.94  15 2.94  71 2.94  57 2.94  60 2.94   5 2.94  59 2.94
                            16 2.94
   5  0.333  0.083  0.000-  10 2.94  17 2.94   3 2.94   6 2.94  18 2.94  16 2.94   4 2.94  97 2.94
                            60 2.94
   6  0.417  0.167  0.000-  98 2.94  97 2.94 103 2.94   5 2.94  18 2.94 110 2.94  10 2.94  11 2.94
                            22 2.94
   7  0.000  0.250  0.000-   2 2.94   3 2.94   8 2.94  19 2.94 102 2.94 107 2.94 108 2.94  14 2.94
                           120 2.94
   8  0.083  0.333  0.000-  49 2.94   7 2.94  20 2.94  19 2.94  10 2.94   9 2.94 108 2.94   3 2.94
                            21 2.94
   9  0.167  0.417  0.000-  50 2.94  61 2.94  52 2.94  49 2.94  23 2.94  21 2.94   8 2.94  11 2.94
                            10 2.94
  10  0.250  0.250  0.000-   5 2.94  22 2.94  17 2.94  21 2.94   3 2.94   6 2.94   8 2.94  11 2.94
                             9 2.94
  11  0.333  0.333  0.000-  52 2.94  12 2.94 103 2.94  24 2.94   9 2.94  10 2.94   6 2.94  23 2.94
                            22 2.94
  12  0.417  0.417  0.000-  52 2.94  53 2.94  11 2.94  64 2.94 145 2.94  24 2.94 104 2.94 103 2.94
                           116 2.94
  13  0.083  0.000  0.120-  81 2.91  26 2.91  25 2.91  14 2.94   1 2.94  57 2.94  68 2.94 114 2.94
                            15 2.94  71 2.94  69 2.94   2 2.94
  14  0.000  0.167  0.120- 131 2.91  25 2.91  27 2.91  13 2.94 114 2.94  15 2.94   2 2.94 102 2.94
                           118 2.94  19 2.94 120 2.94   7 2.94
  15  0.167  0.083  0.120-  26 2.91  27 2.91  28 2.91  19 2.94   3 2.94  14 2.94  17 2.94   2 2.94
                             4 2.94  16 2.94  13 2.94  71 2.94
  16  0.333  0.000  0.120-  84 2.91  29 2.91  28 2.91  17 2.94  18 2.94 164 2.94   5 2.94  60 2.94
                            15 2.94  71 2.94  72 2.94   4 2.94
  17  0.250  0.167  0.120-  30 2.90  32 2.91  28 2.91  18 2.94  16 2.94  22 2.94   5 2.94  15 2.94
                            10 2.94  19 2.94  21 2.94   3 2.94
  18  0.417  0.083  0.120-  30 2.91 121 2.91  29 2.91  17 2.94  22 2.94  16 2.94 110 2.94   6 2.94
                             5 2.94 109 2.94 164 2.94  97 2.94
  19  0.083  0.250  0.120-  31 2.91  32 2.91  27 2.91  15 2.94   7 2.94   3 2.94   8 2.94  17 2.94
                            14 2.94 120 2.94  21 2.94  20 2.94
  20  1.000  0.417  0.120-  33 2.91  31 2.91 173 2.91 162 2.94  49 2.94  61 2.94 160 2.94   8 2.94
                           120 2.94  21 2.94  19 2.94 108 2.94
  21  0.167  0.333  0.120-  34 2.90  32 2.91  33 2.91  61 2.94  22 2.94  23 2.94   9 2.94  10 2.94
                            20 2.94  19 2.94  17 2.94   8 2.94
  22  0.333  0.250  0.120-  35 2.90  30 2.91  34 2.91  18 2.94  21 2.94  17 2.94  10 2.94 110 2.94
                            24 2.94  23 2.94   6 2.94  11 2.94
  23  0.250  0.417  0.120-  36 2.90  74 2.91  34 2.91  61 2.94  63 2.94  21 2.94  64 2.94  52 2.94
                             9 2.94  24 2.94  22 2.94  11 2.94
  24  0.417  0.333  0.120- 127 2.91  36 2.91  35 2.91  64 2.94  11 2.94  12 2.94 103 2.94 115 2.94
                           116 2.94  23 2.94  22 2.94 110 2.94
  25  0.000  0.083  0.238-  14 2.91  13 2.91 114 2.91 131 2.94 126 2.94 125 2.94  26 2.94  27 2.94
                            81 2.94  38 2.95  37 2.95 138 2.95
  26  0.167  0.000  0.238-  15 2.91  13 2.91  71 2.91  82 2.93  27 2.94  25 2.94  28 2.94  81 2.94
                            84 2.94  38 2.95  40 2.95  93 2.95
  27  0.083  0.167  0.238-  15 2.91  14 2.91  19 2.91 131 2.94  26 2.94  28 2.94  25 2.94  32 2.94
                            31 2.94  43 2.94  38 2.95  39 2.95
  28  0.250  0.083  0.238-  15 2.91  17 2.91  16 2.91  30 2.93  84 2.94  27 2.94  26 2.94  29 2.94
                            32 2.94  39 2.95  40 2.95  41 2.95
  29  0.417  0.000  0.238-  18 2.91  16 2.91 164 2.91  30 2.94 121 2.94  84 2.94 175 2.94  28 2.94
                           177 2.94  96 2.94 133 2.95  41 2.95
  30  0.333  0.167  0.238-  17 2.90  18 2.91  22 2.91  35 2.93  28 2.93  32 2.94  29 2.94  34 2.94
                           121 2.94  42 2.95  41 2.95  46 2.95
  31  0.000  0.333  0.238-  19 2.91  20 2.91 120 2.91  33 2.94 132 2.94 131 2.94  32 2.94  27 2.94
                           173 2.94 144 2.94  43 2.95  44 2.95
  32  0.167  0.250  0.238-  19 2.91  17 2.91  21 2.91  34 2.93  30 2.94  31 2.94  27 2.94  28 2.94
                            33 2.94  44 2.94  39 2.95  46 2.95
  33  0.083  0.417  0.238-  20 2.91  61 2.91  21 2.91  74 2.93  34 2.94  31 2.94 173 2.94  73 2.94
                            32 2.94  44 2.94  85 2.94  45 2.95
  34  0.250  0.333  0.238-  21 2.90  23 2.91  22 2.91  32 2.93  36 2.93  33 2.94  35 2.94  74 2.94
                            30 2.94  47 2.95  45 2.95  46 2.95
  35  0.416  0.250  0.238-  22 2.90 139 2.90 110 2.90  24 2.91  30 2.93 121 2.94  34 2.94  36 2.94
                           127 2.95  47 2.95  42 2.96 123 2.96
  36  0.333  0.417  0.238-  23 2.90  24 2.91  64 2.91  48 2.92  34 2.93  74 2.94  35 2.94  76 2.94
                            88 2.95  47 2.95 127 2.95  77 2.95
  37  0.000  0.000  0.358- 137 2.94  38 2.94  93 2.94 138 2.94  92 2.94 192 2.94 125 2.95  25 2.95
                            81 2.95
  38  0.083  0.083  0.358-  93 2.94  37 2.94  43 2.94 138 2.94  40 2.94  39 2.94  25 2.95  27 2.95
                            26 2.95
  39  0.167  0.167  0.358-  41 2.94  40 2.94  43 2.94  46 2.94  44 2.94  38 2.94  28 2.95  32 2.95
                            27 2.95
  40  0.250  0.000  0.358-  95 2.94  41 2.94  93 2.94  39 2.94  38 2.94  96 2.94  28 2.95  84 2.95
                            26 2.95
  41  0.333  0.083  0.359-  42 2.93  40 2.94  39 2.94  96 2.94  46 2.94 133 2.94  28 2.95  29 2.95
                            30 2.95
  42  0.416  0.166  0.359-  41 2.93 133 2.93 139 2.93  46 2.94  30 2.95  47 2.95 121 2.95 134 2.95
                            35 2.96
  43  0.000  0.250  0.358-  38 2.94 143 2.94  39 2.94 138 2.94 144 2.94  44 2.94  27 2.94 131 2.94
                            31 2.95
  44  0.083  0.333  0.358- 144 2.94  46 2.94  39 2.94  45 2.94  43 2.94  85 2.94  33 2.94  32 2.94
                            31 2.95
  45  0.167  0.417  0.359-  47 2.94  88 2.94  85 2.94  44 2.94  46 2.94  86 2.94  34 2.95  74 2.95
                            33 2.95
  46  0.250  0.250  0.359-  42 2.94  47 2.94  44 2.94  39 2.94  41 2.94  45 2.94  34 2.95  32 2.95
                            30 2.95
  47  0.333  0.333  0.358-  46 2.94  45 2.94  36 2.95  34 2.95  48 2.95  42 2.95  35 2.95  88 2.95
                           139 2.95
  48  0.416  0.417  0.356-  77 2.92  36 2.92 127 2.92 140 2.94  88 2.95  47 2.95 181 2.95  89 2.95
                           139 2.99
  49  1.000  0.500  0.000-   8 2.94  20 2.94   9 2.94 108 2.94  50 2.94 149 2.94 150 2.94 162 2.94
                            61 2.94
  50  0.083  0.583  0.000-   9 2.94  63 2.94  61 2.94  62 2.94  51 2.94  52 2.94  49 2.94 150 2.94
                            55 2.94
  51  0.167  0.667  0.000-  56 2.94  53 2.94  58 2.94  65 2.94  50 2.94  55 2.94  52 2.94  63 2.94
                            67 2.94
  52  0.250  0.500  0.000-  12 2.94  11 2.94  53 2.94   9 2.94  23 2.94  64 2.94  50 2.94  51 2.94
                            63 2.94
  53  0.333  0.583  0.000-  12 2.94  52 2.94  51 2.94  64 2.94  65 2.94  54 2.94 145 2.94  58 2.94
                            66 2.94
  54  0.417  0.667  0.000-  59 2.94 158 2.94  66 2.94  70 2.94  53 2.94 146 2.94 151 2.94  58 2.94
                           145 2.94
  55  1.000  0.750  0.000- 156 2.94 155 2.94  56 2.94 168 2.94  67 2.94  62 2.94 150 2.94  51 2.94
                            50 2.94
  56  0.083  0.833  0.000-  58 2.94  51 2.94  57 2.94  55 2.94  67 2.94  69 2.94 156 2.94   1 2.94
                            68 2.94
  57  0.167  0.917  0.000-  58 2.94  56 2.94   1 2.94  69 2.94  13 2.94   4 2.94  59 2.94   2 2.94
                            71 2.94
  58  0.250  0.750  0.000-  56 2.94  57 2.94  51 2.94  69 2.94  59 2.94  65 2.94  54 2.94  53 2.94
                            70 2.94
  59  0.333  0.833  0.000-  54 2.94  70 2.94 151 2.94  58 2.94  72 2.94  71 2.94  60 2.94  57 2.94
                             4 2.94
[...]
   -.135E+02 0.114E+02 -.723E+03   0.135E+02 -.114E+02 0.722E+03   -.571E-02 -.129E-02 0.620E+00   -.308E-03 -.355E-04 -.250E-02
   0.284E+02 0.150E+02 -.722E+03   -.283E+02 -.150E+02 0.721E+03   -.236E-01 -.457E-02 0.613E+00   -.638E-04 -.169E-03 -.249E-02
   0.306E+02 -.165E+00 -.716E+03   -.306E+02 0.161E+00 0.716E+03   -.182E-01 0.195E-02 0.607E+00   -.831E-04 0.159E-03 -.250E-02
   0.657E+02 0.156E+02 -.679E+03   -.658E+02 -.156E+02 0.679E+03   0.323E-01 -.619E-02 0.640E+00   0.175E-03 -.687E-04 -.257E-02
   0.548E+02 0.496E+02 -.631E+03   -.549E+02 -.497E+02 0.630E+03   0.630E-01 0.377E-01 0.603E+00   0.391E-03 -.270E-03 -.265E-02
   0.677E+02 -.481E+01 -.607E+03   -.678E+02 0.481E+01 0.606E+03   0.733E-01 0.995E-04 0.571E+00   0.276E-03 -.746E-05 -.268E-02
   -.171E+02 0.143E+02 -.224E+04   0.171E+02 -.143E+02 0.224E+04   -.102E-01 -.277E-02 0.374E+00   -.266E-03 -.404E-04 -.124E-02
   -.136E+02 0.108E+02 -.224E+04   0.136E+02 -.108E+02 0.224E+04   0.314E-02 0.176E-01 0.370E+00   -.264E-03 -.170E-03 -.104E-02
   0.235E+02 0.195E+02 -.224E+04   -.235E+02 -.195E+02 0.224E+04   -.478E-03 0.101E-01 0.363E+00   -.155E-03 -.243E-03 -.973E-03
   0.110E+02 -.161E+02 -.224E+04   -.110E+02 0.161E+02 0.224E+04   0.522E-03 0.433E-02 0.372E+00   -.658E-04 -.169E-03 -.100E-02
   0.496E+02 0.349E+02 -.223E+04   -.496E+02 -.349E+02 0.223E+04   -.324E-02 -.216E-01 0.338E+00   0.698E-04 -.313E-03 -.109E-02
   0.109E+03 0.115E+03 -.214E+04   -.109E+03 -.115E+03 0.214E+04   0.354E-01 -.138E-01 0.480E-01   0.192E-03 -.363E-03 -.132E-02
   -.389E+02 0.319E+02 -.223E+04   0.389E+02 -.319E+02 0.223E+04   0.481E-02 0.664E-02 0.385E+00   -.308E-03 -.145E-03 -.101E-02
   0.287E+02 0.147E+02 -.223E+04   -.287E+02 -.147E+02 0.223E+04   -.121E-01 0.486E-02 0.372E+00   -.185E-03 -.186E-04 -.971E-03
   0.124E+03 -.625E+01 -.218E+04   -.123E+03 0.624E+01 0.218E+04   -.490E-01 0.163E-01 0.295E+00   -.721E-04 0.132E-03 -.108E-02
   0.102E+03 0.436E+02 -.220E+04   -.102E+03 -.436E+02 0.220E+04   -.194E-01 -.176E-01 0.294E+00   -.381E-06 -.207E-03 -.109E-02
   0.188E+03 0.539E+02 -.202E+04   -.188E+03 -.540E+02 0.202E+04   0.199E+00 0.879E-01 0.623E+00   0.980E-04 -.128E-03 -.135E-02
   0.948E+02 -.161E+02 -.181E+04   -.947E+02 0.163E+02 0.181E+04   -.837E-01 -.186E+00 0.123E+01   0.226E-03 -.444E-04 -.163E-02
   0.568E+01 -.393E+01 0.228E+04   -.568E+01 0.394E+01 -.228E+04   0.593E-02 -.344E-02 -.399E+00   -.624E-04 0.241E-03 -.130E-02
   0.197E+02 -.116E+02 0.228E+04   -.197E+02 0.116E+02 -.228E+04   -.919E-03 0.948E-02 -.396E+00   -.105E-04 0.316E-03 -.118E-02
   0.192E+02 -.220E+02 0.227E+04   -.192E+02 0.220E+02 -.227E+04   0.124E-02 0.183E-02 -.391E+00   -.369E-04 0.273E-03 -.979E-03
   0.271E+02 -.108E+02 0.227E+04   -.270E+02 0.108E+02 -.227E+04   -.646E-02 0.969E-02 -.424E+00   0.883E-04 0.163E-03 -.966E-03
   0.137E+02 -.240E+02 0.227E+04   -.137E+02 0.240E+02 -.227E+04   0.334E-02 0.121E-01 -.402E+00   0.781E-04 0.124E-03 -.768E-03
   -.344E+01 -.302E+02 0.227E+04   0.344E+01 0.302E+02 -.227E+04   -.161E-02 -.149E-02 -.380E+00   0.490E-04 0.675E-04 -.800E-03
   0.101E+02 -.948E+01 0.228E+04   -.101E+02 0.948E+01 -.228E+04   0.169E-02 -.179E-02 -.413E+00   -.411E-04 0.307E-03 -.104E-02
   0.720E+01 -.138E+02 0.228E+04   -.719E+01 0.138E+02 -.228E+04   -.261E-02 0.302E-02 -.415E+00   -.162E-03 0.139E-03 -.964E-03
   0.200E+01 -.138E+02 0.228E+04   -.200E+01 0.138E+02 -.228E+04   -.303E-02 -.166E-01 -.411E+00   -.180E-03 -.794E-04 -.103E-02
   0.855E+01 -.285E+02 0.227E+04   -.854E+01 0.285E+02 -.227E+04   -.513E-02 -.224E-01 -.396E+00   -.555E-04 0.113E-03 -.935E-03
   0.680E-01 -.240E+02 0.228E+04   -.637E-01 0.240E+02 -.228E+04   -.515E-02 0.867E-02 -.424E+00   -.120E-05 -.533E-04 -.105E-02
   0.940E+00 -.838E+01 0.228E+04   -.938E+00 0.838E+01 -.228E+04   -.135E-02 0.504E-02 -.420E+00   0.958E-04 -.168E-03 -.112E-02
[...]
   0.863E+01 -.148E+03 -.824E+03   -.101E+02 0.148E+03 0.824E+03   0.150E+01 -.615E+00 0.171E+00   0.306E-03 -.476E-04 0.327E-03
   0.345E+02 0.283E+03 -.899E+03   -.346E+02 -.287E+03 0.911E+03   0.556E-01 0.443E+01 -.122E+02   0.105E-03 -.269E-03 0.322E-03
   0.859E+02 -.347E+02 -.169E+03   -.909E+02 0.375E+02 0.169E+03   0.502E+01 -.284E+01 -.977E-01   -.672E-04 0.245E-04 0.974E-04
   0.839E+02 0.382E+02 -.173E+03   -.889E+02 -.410E+02 0.173E+03   0.500E+01 0.281E+01 0.153E+00   -.719E-04 -.383E-04 0.929E-04
   -.520E+02 0.641E+02 -.170E+03   0.573E+02 -.669E+02 0.170E+03   -.527E+01 0.276E+01 0.351E-01   0.682E-04 -.372E-04 0.731E-04
   0.330E+01 -.107E+03 -.166E+03   -.403E+01 0.114E+03 0.166E+03   0.734E+00 -.754E+01 -.335E+00   0.561E-04 0.426E-04 0.773E-04
   0.701E+02 0.716E+02 -.169E+03   -.762E+02 -.752E+02 0.167E+03   0.619E+01 0.364E+01 0.201E+01   -.615E-04 -.949E-04 0.436E-04
   -.605E+02 0.744E+02 -.169E+03   0.668E+02 -.779E+02 0.167E+03   -.634E+01 0.348E+01 0.182E+01   0.970E-04 -.852E-04 0.381E-04
   -.679E+01 -.550E+02 -.172E+03   0.895E+01 0.567E+02 0.176E+03   -.219E+01 -.168E+01 -.467E+01   0.150E-04 0.756E-04 0.176E-03
   0.691E+02 -.543E+02 -.160E+03   -.743E+02 0.562E+02 0.160E+03   0.524E+01 -.195E+01 0.115E+00   -.654E-04 0.757E-04 0.979E-04
   -.110E+02 -.660E+02 -.151E+03   0.135E+02 0.686E+02 0.147E+03   -.251E+01 -.251E+01 0.397E+01   0.224E-04 0.615E-04 0.168E-04
   -.611E+02 -.627E+02 -.156E+03   0.638E+02 0.678E+02 0.156E+03   -.277E+01 -.508E+01 0.609E+00   0.554E-04 0.459E-04 0.119E-03
   -.540E+02 0.200E+02 -.169E+03   0.553E+02 -.224E+02 0.174E+03   -.133E+01 0.247E+01 -.496E+01   0.633E-04 -.114E-04 0.169E-03
   -.609E+02 0.313E+02 -.147E+03   0.624E+02 -.348E+02 0.143E+03   -.149E+01 0.357E+01 0.420E+01   0.399E-04 -.193E-04 0.625E-04
   0.570E+01 -.137E+02 0.836E+01   0.455E-12 -.604E-12 -.944E-11   -.573E+01 0.137E+02 -.757E+01   0.176E-02 -.258E-03 -.342E+00

 POSITION                                       TOTAL-FORCE (eV/Angst)
      0.00000      0.00000      0.00000        -0.001599      0.003416     -0.016133
      2.54506      1.46939      0.00000        -0.002323     -0.001507     -0.017319
      5.09012      2.93878      0.00000         0.003282      0.001116     -0.016825
      5.09012      0.00000      0.00000        -0.001157      0.000372     -0.016202
      7.63518      1.46939      0.00000         0.001379      0.003888     -0.015035
     10.18024      2.93878      0.00000         0.001877     -0.001793     -0.018596
      2.54506      4.40817      0.00000        -0.002987     -0.002351     -0.016266
      5.09012      5.87756      0.00000         0.005481      0.000759     -0.014959
      7.63518      7.34695      0.00000         0.001549     -0.000088     -0.015789
      7.63518      4.40817      0.00000         0.000659     -0.000011     -0.011908
     10.18024      5.87756      0.00000        -0.001308      0.001488     -0.020761
     12.72529      7.34695      0.00000        -0.000857      0.002103     -0.026764
      1.69671      0.00000      2.39950         0.000053      0.000084      0.023503
      1.69671      2.93878      2.39950         0.001469     -0.001782      0.020269
      4.24176      1.46939      2.39950         0.002291      0.002219      0.024572
      6.78682      0.00000      2.39950        -0.001079      0.001537      0.021596
      6.78682      2.93878      2.39950        -0.009657     -0.001513      0.014176
      9.33188      1.46939      2.39950        -0.000953     -0.005775      0.020304
      4.24176      4.40817      2.39950        -0.000744     -0.001762      0.022011
     24.60224      7.34695      2.39950        -0.001867      0.000505      0.018608
      6.78682      5.87756      2.39950        -0.006134     -0.002300      0.020476
      9.33188      4.40817      2.39950        -0.000311      0.001508      0.016610
      9.33188      7.34695      2.39950         0.002381     -0.001698      0.014819
     11.87694      5.87756      2.39950         0.007555      0.002611      0.013449
      0.84868      1.46995      4.76036        -0.000529     -0.002120     -0.000854
      3.39322      0.00099      4.76015         0.001319      0.000684      0.000374
      3.39369      2.93818      4.76044         0.001537      0.004218     -0.001183
      5.93827      1.46949      4.76109        -0.000752     -0.000568     -0.002310
      8.48360      0.00113      4.76083         0.005046     -0.001752     -0.001650
      8.47869      2.93708      4.75808         0.004401     -0.000142      0.003449
      3.39365      5.87749      4.76027         0.002834     -0.001151     -0.000678
      5.93816      4.40802      4.76061        -0.001395      0.000532      0.001773
      5.93638      7.34737      4.76085        -0.003290     -0.002420     -0.001143
      8.47769      5.87800      4.76068         0.004769     -0.002179      0.003705
     11.01848      4.40423      4.75397        -0.001399      0.001522     -0.001937
     11.01901      7.34628      4.75645         0.000977     -0.002140      0.000247
      0.00092      0.00102      7.16882         0.000858     -0.000920     -0.002218
      2.54453      1.46965      7.16871         0.003875     -0.001423      0.001937
      5.09047      2.93850      7.16904        -0.003206      0.000877     -0.000729
      5.08954      0.00067      7.16893        -0.001984      0.002077     -0.002213
      7.63300      1.46871      7.17075        -0.000010      0.000302     -0.000357
     10.17009      2.92784      7.17208         0.001819      0.002974      0.002911
      2.54556      4.40700      7.16756         0.002206      0.000695      0.000399
      5.09102      5.87708      7.16831        -0.000861      0.000983     -0.002824
      7.63563      7.34734      7.17112         0.001525     -0.000770     -0.001447
      7.63511      4.40755      7.17209         0.003277      0.001030      0.001420
     10.17790      5.87600      7.16629         0.002617     -0.002912      0.001685
     12.72575      7.35803      7.12183         0.001790      0.002259     -0.000799
     25.45059      8.81634      0.00000         0.003138     -0.000244     -0.014677
      7.63518     10.28573      0.00000         0.000490     -0.000627     -0.015893
     10.18024     11.75512      0.00000        -0.002509      0.000095     -0.016745
     10.18024      8.81634      0.00000         0.002399     -0.000633     -0.017605
     12.72529     10.28573      0.00000         0.001471     -0.001234     -0.020516
     15.27035     11.75512      0.00000        -0.001349     -0.004474     -0.014029
     27.99565     13.22451      0.00000         0.002342     -0.002664     -0.017319
     10.18024     14.69390      0.00000         0.002909     -0.004469     -0.015774
     12.72529     16.16330      0.00000         0.000338      0.000102     -0.016895
     12.72529     13.22451      0.00000         0.001682      0.000686     -0.016944
     15.27035     14.69390      0.00000        -0.000732     -0.006937     -0.014087
     17.81541     16.16330      0.00000         0.000028     -0.002015     -0.018902
[...]
     18.66942      8.69141     10.65177         0.029450     -0.040524     -0.015999
     15.13632      8.34920     10.48151         0.004463      0.006455     -0.003091
     12.77490      4.10157     10.22318         0.006373     -0.025471     -0.013180
     10.59768      8.11430     10.41438        -0.008559      0.000161      0.004529
     10.58975      5.63777     10.26661        -0.006293     -0.008909     -0.006302
     14.91820      5.67006     10.30887         0.021282     -0.011421      0.000030
     15.03077      9.35852     10.52867        -0.007511      0.003634      0.003429
     11.92872      3.61543      9.94014         0.024542      0.017234      0.006968
     13.64128      3.63763      9.96461        -0.025137      0.016042      0.007783
     13.16730     10.14242     11.55635         0.006392      0.006621      0.016698
     11.67280     10.18118     10.59060        -0.012572      0.005066      0.005382
     13.24563     10.31745      9.78667        -0.003195      0.000879      0.003933
     19.18053      9.65396     10.54067        -0.002396      0.002732      0.007955
     18.91735      8.22192     11.61530        -0.011345      0.000773     -0.013497
     18.95059      8.01121      9.83188        -0.011263      0.035471      0.031073
    total drift:                               -0.031022      0.029541      0.449782

  FREE ENERGIE OF THE ION-ELECTRON SYSTEM (eV)
  free  energy   TOTEN  =      -760.03100768 eV

  energy  without entropy=     -759.95297090  energy(sigma->0) =     -759.99198929

[...]

  free energy =  -0.742452222265E+03  energy without entropy=  -0.742374183658E+03

[...]

 d Force = 0.1268755E-03[ 0.227E-04, 0.231E-03]  d Energy = 0.1331903E-03-0.631E-05
 d Force =-0.5929880E+00[-0.593E+00,-0.593E+00]  d Ewald  =-0.5929870E+00-0.967E-06

 Steepest descent step on ions:
 trial-energy change:   -0.000133  1 .order   -0.000127   -0.000231   -0.000023
  (g-gl).g = 0.231E-03      g.g   = 0.231E-03  gl.gl    = 0.000E+00
 g(Force)  = 0.231E-03   g(Stress)= 0.000E+00 ortho     = 0.000E+00
 gamma     =   0.00000
 trial     =   1.00000
 opt step  =   1.10870  (harmonic =   1.10870) maximal distance =0.00056917
 next E    =  -760.031136   (d E  =  -0.00013)

[...]

 d Force = 0.1215988E-05[-0.309E-07, 0.246E-05]  d Energy = 0.1200943E-05 0.150E-07
 d Force =-0.6450505E-01[-0.645E-01,-0.645E-01]  d Ewald  =-0.6450504E-01-0.105E-08

 real space projection operators:
  max/ min on nodes  :      14335.84      14323.61

[...]

 eigenvalue-minimisations  :  7146
 total energy-change (2. order) :-0.2179295E-06  (-0.3648024E-06)
 number of electron    2181.9997640 magnetization
 augmentation part      776.6525096 magnetization

[...]

 eigenvalues of (default mixing * dielectric matrix)
  average eigenvalue GAMMA=   1.0880
  1.8405  0.9187  0.5049

[...]

--------------------------------------- Iteration      4(   5)  ---------------------------------------

 eigenvalue-minimisations  :  3071
 total energy-change (2. order) : 0.5854818E-06  (-0.6189931E-07)
 number of electron    2181.9997640 magnetization
 augmentation part      776.6525096 magnetization

 DIPCOR: dipole corrections for dipol
 direction  3 min pos   155,
 dipolmoment           0.000000      0.000000     -0.437438 electrons x Angstroem
 Tr[quadrupol]   -157673.715797

 energy correction for charged system         0.000000 eV
 dipol+quadrupol energy correction           -0.002579 eV
 added-field ion interaction        -11.798565 eV  (added to PSCEN)

  free energy =  -0.742452287271E+03  energy without entropy=  -0.742374252239E+03

------------------------ aborting loop because EDIFF is reached ----------------------------------------

  Number of pair interactions contributing to vdW energy:  868613
  Edisp (eV):  -17.57890

  FORCE on cell =-STRESS in cart. coord.  units (eV):
  Direction    XX          YY          ZZ          XY          YZ          ZX
  Alpha Z  6270.63756  6270.63756  6270.63756
  Ewald  453346.90469452249.73479************   600.08496   332.83507   134.77716
  Hartree503098.28065502046.19043************   544.11831   223.14693   104.17809
  E(xc)   -9754.82282 -9754.73183 -9798.25748     0.07024     0.46533     0.12761
  Local  ************************************ -1147.04300  -543.19620  -236.29373
  n-local  -440.81956  -445.08847  -321.09688     0.88750     0.27527     0.26650
  augment 12997.46162 12997.01330 13078.58488     0.09178    -0.31714    -0.08561
  Kinetic 30429.20885 30428.99393 30843.23149     1.71138   -13.13361    -2.97144
  Fock        0.00000     0.00000     0.00000     0.00000     0.00000     0.00000
  vdW       -23.83726   -23.97751   -19.07090    -0.02756    -0.01334     0.00948
  Total    -124.22585  -124.64430    -2.42652    -0.10639     0.06230     0.00807
  in kB     -27.71956   -27.81293    -0.54145    -0.02374     0.01390     0.00180

  FREE ENERGIE OF THE ION-ELECTRON SYSTEM (eV)
  free  energy   TOTEN  =      -760.03118697 eV

  energy  without entropy=     -759.95315193  energy(sigma->0) =     -759.99216945

 d Force = 0.4194767E-04[ 0.144E-04, 0.695E-04]  d Energy = 0.4489070E-04-0.294E-05
 d Force =-0.6977095E+00[-0.698E+00,-0.698E+00]  d Ewald  =-0.6977090E+00-0.409E-06

 Conjugate gradient step on ions:
 trial-energy change:   -0.000045  1 .order   -0.000042   -0.000069   -0.000014
  (g-gl).g = 0.684E-04      g.g   = 0.681E-04  gl.gl    = 0.231E-03
 g(Force)  = 0.681E-04   g(Stress)= 0.000E+00 ortho     =-0.285E-06
 gamma     =   0.29577
 trial     =   1.02174
 opt step  =   1.28978  (harmonic =   1.28978) maximal distance =0.00034322
 next E    =  -760.031186   (d E  =  -0.00004)

 reached required accuracy - stopping structural energy minimisation