 vasp.5.4.4.18Apr17-6-g9f103f2a35 (build Jun 30 2017 19:19:18) complex

 executed on         MareNostrum4 date 2022.05.16  17:47:10

 INCAR:
 POTCAR:    PAW_PBE Pt 04Feb2005
 POTCAR:    PAW_PBE H 15Jun2001
 POTCAR:    PAW_PBE C 08Apr2002

 POTCAR:    PAW_PBE Pt 04Feb2005

 POTCAR:    PAW_PBE H 15Jun2001

 POTCAR:    PAW_PBE C 08Apr2002

 Optimization of the real space projectors (new method)

 maximal supplied QI-value         = 14.36
 optimisation between [QCUT,QGAM] = [ 10.77, 21.69] = [ 32.49,131.70] Ry
 Optimized for a Real-space Cutoff    1.46 Angstroem

   l    n(q)    QCUT    max X(q) W(low)/X(q) W(high)/X(q)  e(spline)
   2      9    10.771    66.195    0.13E-03    0.31E-03    0.27E-06
   2      9    10.771    64.643    0.13E-03    0.32E-03    0.28E-06
   0     10    10.771    95.520    0.41E-04    0.13E-03    0.15E-06
   0     10    10.771    63.403    0.40E-04    0.12E-03    0.14E-06
   1      9    10.771    19.961    0.42E-03    0.19E-03    0.28E-06
   1      9    10.771    13.289    0.35E-03    0.16E-03    0.23E-06
 Optimization of the real space projectors (new method)

[...]

   l    n(q)    QCUT    max X(q) W(low)/X(q) W(high)/X(q)  e(spline)
   0      8    10.603    19.460    0.37E-03    0.59E-03    0.23E-06
   0      8    10.603    12.209    0.35E-03    0.56E-03    0.22E-06
   1      7    10.603     4.655    0.70E-04    0.28E-03    0.29E-06
 Optimization of the real space projectors (new method)

 maximal supplied QI-value         = 25.13
 optimisation between [QCUT,QGAM] = [ 10.81, 21.61] = [ 32.71,130.83] Ry
 Optimized for a Real-space Cutoff    1.23 Angstroem

   l    n(q)    QCUT    max X(q) W(low)/X(q) W(high)/X(q)  e(spline)
   0      8    10.807   115.676    0.36E-03    0.72E-03    0.24E-06
   0      8    10.807    87.132    0.35E-03    0.71E-03    0.24E-06
   1      7    10.807     4.429    0.19E-03    0.39E-03    0.11E-06
   1      7    10.807     2.733    0.14E-03    0.28E-03    0.13E-06
  PAW_PBE Pt 04Feb2005                  :
  PAW_PBE H 15Jun2001                   :
  PAW_PBE C 08Apr2002                   :

 POSCAR: Pt  H  C
  positions in direct lattice
  velocities in cartesian coordinates
 exchange correlation table for  LEXCH =        8
   RHO(1)=    0.500       N(1)  =     2000
   RHO(2)=  100.500       N(2)  =     4000

 ion  position               nearest neighbor table
   1  0.000  0.000  0.000-   2 2.81  57 2.81 101 2.81 156 2.81 102 2.81  56 2.81 114 2.81  68 2.81
                            13 2.81
   2  0.083  0.083  0.000- 102 2.81   1 2.81  57 2.81   7 2.81  13 2.81  14 2.81  15 2.81   4 2.81
                             3 2.81
   3  0.167  0.167  0.000-  10 2.81   5 2.81  17 2.81   8 2.81   4 2.81  19 2.81  15 2.81   7 2.81
                             2 2.81
   4  0.250  0.000  0.000-   5 2.81  60 2.81  16 2.81  59 2.81   3 2.81  15 2.81  71 2.81  57 2.81
                             2 2.81
   5  0.333  0.083  0.000-   3 2.81   4 2.81  97 2.81   6 2.81  60 2.81  10 2.81  18 2.81  16 2.81
                            17 2.81
   6  0.417  0.167  0.000- 103 2.81  98 2.81   5 2.81  10 2.81  11 2.81  97 2.81  22 2.81  18 2.81
                           110 2.81
   7  1.000  0.250  0.000- 102 2.81 107 2.81   2 2.81 108 2.81  14 2.81 120 2.81  19 2.81   8 2.81
                             3 2.81
   8  0.083  0.333  0.000-  49 2.81  10 2.81   9 2.81  21 2.81   3 2.81  19 2.81  20 2.81   7 2.81
                           108 2.81
   9  0.167  0.417  0.000-  50 2.81  49 2.81  52 2.81  11 2.81   8 2.81  61 2.81  10 2.81  23 2.81
                            21 2.81
  10  0.250  0.250  0.000-   3 2.81   8 2.81  11 2.81   6 2.81   9 2.81   5 2.81  22 2.81  21 2.81
                            17 2.81
  11  0.333  0.333  0.000-  52 2.81   9 2.81  10 2.81 103 2.81  12 2.81   6 2.81  22 2.81  23 2.81
                            24 2.81
  12  0.417  0.417  0.000-  53 2.81  52 2.81  64 2.81  11 2.81 103 2.81 145 2.81  24 2.81 116 2.81
                           104 2.81
  13  0.083  0.000  0.115-  26 2.77  81 2.77  25 2.77  68 2.81  71 2.81  15 2.81 114 2.81  69 2.81
                            14 2.81  57 2.81   2 2.81   1 2.81
  14  0.000  0.167  0.115- 131 2.77  25 2.77  27 2.77  15 2.81 118 2.81  19 2.81 114 2.81 120 2.81
                            13 2.81   7 2.81   2 2.81 102 2.81
  15  0.167  0.083  0.115-  28 2.77  26 2.77  27 2.77  14 2.81  16 2.81  13 2.81  17 2.81  71 2.81
                            19 2.81   2 2.81   4 2.81   3 2.81
  16  0.333  0.000  0.115-  84 2.77  29 2.77  28 2.77  71 2.81  15 2.81   4 2.81  72 2.81  17 2.81
                            60 2.81   5 2.81  18 2.81 164 2.81
  17  0.250  0.167  0.115-  30 2.77  28 2.77  32 2.77  19 2.81  15 2.81   3 2.81  21 2.81  16 2.81
                            10 2.81   5 2.81  18 2.81  22 2.81
  18  0.417  0.083  0.115- 121 2.77  29 2.77  30 2.77 109 2.81 110 2.81 164 2.81  22 2.81  97 2.81
                             6 2.81   5 2.81  17 2.81  16 2.81
  19  0.083  0.250  0.115-  32 2.77  31 2.77  27 2.77  14 2.81  17 2.81  21 2.81 120 2.81  20 2.81
                            15 2.81   7 2.81   8 2.81   3 2.81
  20  1.000  0.417  0.115- 173 2.77  33 2.77  31 2.78 162 2.81  61 2.81 160 2.81  21 2.81 120 2.81
                            49 2.81  19 2.81 108 2.81   8 2.81
  21  0.167  0.333  0.115-  33 2.77  32 2.77  34 2.78  61 2.81  20 2.81  19 2.81   8 2.81  17 2.81
                            10 2.81   9 2.81  22 2.81  23 2.81
  22  0.333  0.250  0.115-  30 2.77  34 2.77  35 2.78  24 2.81 110 2.81  23 2.81  18 2.81  11 2.81
                             6 2.81  10 2.81  17 2.81  21 2.81
  23  0.250  0.417  0.115-  36 2.77  74 2.77  34 2.77  63 2.81  64 2.81  52 2.81  24 2.81  22 2.81
                            61 2.81  11 2.81   9 2.81  21 2.81
  24  0.417  0.333  0.115-  36 2.77  35 2.77 127 2.78  64 2.81 116 2.81  22 2.81 115 2.81  23 2.81
                           110 2.81 103 2.81  12 2.81  11 2.81
  25  0.000  0.083  0.227-  13 2.77  14 2.77 114 2.77  26 2.80 126 2.80  81 2.80 125 2.80  27 2.80
                            37 2.80 131 2.81  38 2.81 138 2.81
  26  0.167  0.000  0.227-  13 2.77  15 2.77  71 2.77  25 2.80  81 2.80  27 2.80  93 2.80  84 2.80
                            28 2.81  82 2.81  40 2.81  38 2.81
  27  0.083  0.167  0.227-  14 2.77  15 2.77  19 2.77  31 2.80 131 2.80  28 2.80  25 2.80  26 2.80
                            39 2.80  38 2.81  43 2.81  32 2.81
  28  0.250  0.083  0.227-  15 2.77  17 2.77  16 2.77  27 2.80  41 2.80  26 2.81  32 2.81  84 2.81
                            39 2.81  40 2.81  30 2.81  29 2.81
  29  0.417  0.000  0.227-  18 2.77  16 2.77 164 2.77  30 2.80 133 2.80  41 2.80 175 2.80  96 2.81
                           121 2.81 177 2.81  28 2.81  84 2.81
  30  0.333  0.167  0.227-  17 2.77  22 2.77  18 2.77  42 2.80  29 2.80  46 2.81  34 2.81  32 2.81
                            41 2.81  28 2.81  35 2.81 121 2.81
  31  0.000  0.333  0.227-  19 2.77 120 2.78  20 2.78  32 2.80  27 2.80 131 2.80  33 2.80 132 2.80
                           144 2.80  43 2.80 173 2.81  44 2.81
  32  0.167  0.250  0.227-  19 2.77  21 2.77  17 2.77  33 2.80  31 2.80  46 2.80  28 2.81  30 2.81
                            27 2.81  44 2.81  39 2.81  34 2.81
  33  0.083  0.416  0.227-  20 2.77  21 2.77  61 2.77  32 2.80  45 2.80 173 2.80  31 2.80  74 2.81
                            85 2.81  44 2.81  73 2.81  34 2.81
  34  0.250  0.333  0.227-  23 2.77  22 2.77  21 2.78  36 2.80  47 2.80  35 2.80  30 2.81  74 2.81
                            46 2.81  45 2.81  33 2.81  32 2.81
  35  0.417  0.250  0.227-  24 2.77  22 2.78 110 2.78  36 2.80 139 2.80  34 2.80  42 2.81 127 2.81
                           121 2.81  30 2.81 123 2.81  47 2.81
  36  0.333  0.417  0.227-  23 2.77  24 2.77  64 2.77  34 2.80  35 2.80  48 2.80  77 2.80  74 2.81
                            88 2.81 127 2.81  47 2.81  76 2.81
  37  0.000  0.000  0.342- 125 2.80  25 2.80  81 2.80  38 2.80 138 2.81 192 2.81  92 2.81  93 2.81
                           137 2.81
  38  0.083  0.083  0.342-  40 2.80  43 2.80  37 2.80  39 2.80  27 2.81  93 2.81  25 2.81  26 2.81
                           138 2.81
  39  0.167  0.167  0.342-  46 2.80  41 2.80  43 2.80  44 2.80  27 2.80  38 2.80  40 2.81  28 2.81
                            32 2.81
  40  0.250  0.000  0.342-  96 2.80  41 2.80  93 2.80  38 2.80  84 2.81  26 2.81  39 2.81  95 2.81
                            28 2.81
  41  0.333  0.083  0.342-  96 2.80  42 2.80  46 2.80  40 2.80  39 2.80  29 2.80  28 2.80  30 2.81
                           133 2.81
  42  0.417  0.166  0.341- 133 2.79 121 2.80  30 2.80  41 2.80 134 2.80  35 2.81  46 2.81 139 2.82
                            47 2.82
  43  0.000  0.250  0.342-  39 2.80  31 2.80 143 2.80  38 2.80 138 2.81 144 2.81  44 2.81  27 2.81
                           131 2.81
  44  0.083  0.333  0.342-  46 2.80  39 2.80 144 2.80  45 2.80  43 2.81  31 2.81  85 2.81  32 2.81
                            33 2.81
  45  0.166  0.417  0.341-  85 2.80  33 2.80  86 2.80  44 2.80  47 2.80  74 2.81  34 2.81  88 2.81
                            46 2.81
  46  0.250  0.250  0.342-  39 2.80  44 2.80  41 2.80  32 2.80  30 2.81  47 2.81  34 2.81  42 2.81
                            45 2.81
  47  0.333  0.334  0.342- 214 2.16  34 2.80  45 2.80  46 2.81  35 2.81  36 2.81  48 2.81  88 2.82
                            42 2.82 139 2.83
  48  0.416  0.417  0.341- 127 2.80  36 2.80  77 2.80  89 2.81 181 2.81  47 2.81  88 2.81 140 2.82
                           139 2.82
  49  0.000  0.500  0.000-   8 2.81   9 2.81  50 2.81  61 2.81  20 2.81 150 2.81 108 2.81 162 2.81
                           149 2.81
  50  0.083  0.583  0.000-   9 2.81 150 2.81  52 2.81  49 2.81  51 2.81  55 2.81  63 2.81  61 2.81
                            62 2.81
  51  0.167  0.667  0.000-  58 2.81  53 2.81  55 2.81  50 2.81  56 2.81  52 2.81  67 2.81  63 2.81
                            65 2.81
  52  0.250  0.500  0.000-  11 2.81   9 2.81  12 2.81  23 2.81  50 2.81  53 2.81  51 2.81  63 2.81
                            64 2.81
  53  0.333  0.583  0.000-  12 2.81  51 2.81  52 2.81  58 2.81  64 2.81  65 2.81  66 2.81 145 2.81
                            54 2.81
  54  0.417  0.667  0.000- 151 2.81 146 2.81 158 2.81  59 2.81 145 2.81  70 2.81  66 2.81  58 2.81
                            53 2.81
  55  0.000  0.750  0.000- 150 2.81  56 2.81 155 2.81  51 2.81  50 2.81 156 2.81  67 2.81  62 2.81
                           168 2.81
  56  0.083  0.833  0.000- 156 2.81  58 2.81  55 2.81  57 2.81  51 2.81   1 2.81  67 2.81  68 2.81
                            69 2.81
  57  0.167  0.917  0.000-   1 2.81  56 2.81   2 2.81  58 2.81  13 2.81  69 2.81  71 2.81  59 2.81
                             4 2.81
  58  0.250  0.750  0.000-  51 2.81  56 2.81  53 2.81  57 2.81  65 2.81  69 2.81  70 2.81  59 2.81
                            54 2.81
  59  0.333  0.833  0.000- 151 2.81  60 2.81  72 2.81  54 2.81   4 2.81  70 2.81  71 2.81  57 2.81
                            58 2.81
  60  0.417  0.917  0.000- 152 2.81  97 2.81   4 2.81  59 2.81   5 2.81 151 2.81 164 2.81  16 2.81
                            72 2.81
[...]
   -.116E+01 0.147E+02 -.676E+03   0.117E+01 -.147E+02 0.675E+03   0.741E-03 0.195E-01 0.404E+00   -.745E-02 -.100E-01 0.294E+00
   0.301E+02 0.383E+01 -.663E+03   -.301E+02 -.382E+01 0.663E+03   0.183E-01 -.189E-01 0.446E+00   0.136E-01 -.507E-02 0.288E+00
   0.200E+02 -.613E+00 -.664E+03   -.201E+02 0.588E+00 0.663E+03   0.186E-01 0.250E-01 0.444E+00   0.211E-01 -.149E-02 0.304E+00
   0.450E+02 -.728E+00 -.630E+03   -.450E+02 0.718E+00 0.629E+03   -.605E-01 -.469E-03 0.368E+00   0.228E-01 0.597E-02 0.291E+00
   0.190E+02 0.224E+02 -.602E+03   -.191E+02 -.224E+02 0.602E+03   0.384E-03 -.387E-01 0.368E+00   0.138E-01 0.909E-02 0.287E+00
   0.377E+02 -.953E+01 -.593E+03   -.378E+02 0.947E+01 0.593E+03   0.255E-01 0.533E-01 0.338E+00   0.176E-01 0.152E-01 0.287E+00
   0.687E+00 -.220E+01 -.212E+04   -.664E+00 0.220E+01 0.212E+04   -.557E-02 -.451E-02 0.119E+01   -.195E-01 0.262E-02 0.624E-01
   0.193E+02 -.340E+01 -.212E+04   -.193E+02 0.341E+01 0.212E+04   -.696E-02 0.157E-02 0.118E+01   -.217E-01 -.319E-02 0.636E-01
   0.501E+02 0.323E+01 -.210E+04   -.501E+02 -.322E+01 0.210E+04   -.257E-02 -.184E-01 0.116E+01   0.674E-02 0.130E-02 0.623E-01
   0.510E+02 -.378E+02 -.209E+04   -.510E+02 0.378E+02 0.209E+04   -.576E-02 0.270E-02 0.117E+01   0.767E-02 -.648E-02 0.610E-01
   0.623E+02 0.313E+01 -.206E+04   -.623E+02 -.314E+01 0.206E+04   0.365E-01 0.643E-03 0.116E+01   0.170E-01 -.490E-02 0.548E-01
   0.434E+02 0.695E+02 -.196E+04   -.434E+02 -.697E+02 0.196E+04   0.658E-02 0.201E+00 0.140E+01   0.105E-01 -.128E-02 0.530E-01
   -.238E+01 0.254E+02 -.211E+04   0.240E+01 -.254E+02 0.211E+04   -.957E-02 0.106E-01 0.117E+01   -.160E-01 -.151E-02 0.631E-01
   0.388E+02 0.729E+01 -.210E+04   -.388E+02 -.730E+01 0.209E+04   -.145E-01 0.190E-01 0.115E+01   0.789E-02 0.367E-02 0.667E-01
   0.883E+02 -.297E+02 -.205E+04   -.884E+02 0.297E+02 0.205E+04   0.858E-01 -.557E-01 0.117E+01   0.179E-01 0.750E-02 0.589E-01
   0.102E+03 0.118E+02 -.203E+04   -.102E+03 -.118E+02 0.202E+04   0.681E-01 0.368E-01 0.115E+01   0.141E-01 0.239E-02 0.573E-01
   0.103E+03 -.412E+01 -.188E+04   -.104E+03 0.415E+01 0.188E+04   0.179E+00 -.302E-01 0.157E+01   0.170E-01 0.117E-01 0.496E-01
   0.423E+02 -.855E+01 -.182E+04   -.422E+02 0.860E+01 0.182E+04   -.659E-01 -.405E-01 0.165E+01   0.865E-02 0.547E-02 0.439E-01
   -.362E-01 0.935E+00 0.216E+04   0.466E-01 -.921E+00 -.216E+04   -.551E-02 -.371E-02 -.119E+01   0.271E-02 -.428E-02 0.251E-01
   0.850E+01 -.730E+01 0.216E+04   -.851E+01 0.731E+01 -.215E+04   -.931E-02 0.604E-03 -.119E+01   0.250E-01 -.981E-02 0.396E-01
   0.138E+02 -.139E+02 0.216E+04   -.138E+02 0.139E+02 -.215E+04   -.456E-02 0.246E-02 -.119E+01   0.262E-01 -.273E-01 0.493E-01
   0.164E+02 -.735E+01 0.215E+04   -.164E+02 0.735E+01 -.215E+04   -.120E-01 0.855E-02 -.119E+01   0.333E-01 -.941E-02 0.502E-01
   0.138E+02 -.114E+02 0.215E+04   -.138E+02 0.114E+02 -.215E+04   -.914E-02 0.423E-02 -.119E+01   0.467E-02 -.237E-01 0.509E-01
   0.722E+01 -.129E+02 0.215E+04   -.722E+01 0.129E+02 -.215E+04   0.173E-04 0.431E-02 -.118E+01   -.671E-02 -.254E-01 0.415E-01
   0.129E+01 -.763E+01 0.216E+04   -.130E+01 0.764E+01 -.216E+04   0.103E-02 -.557E-03 -.118E+01   0.754E-02 -.134E-01 0.391E-01
   0.758E+01 -.112E+02 0.216E+04   -.759E+01 0.112E+02 -.216E+04   -.239E-02 0.113E-02 -.118E+01   0.149E-01 -.195E-01 0.386E-01
   0.109E+02 -.122E+02 0.216E+04   -.110E+02 0.122E+02 -.215E+04   -.269E-02 0.185E-02 -.119E+01   0.105E-01 -.876E-02 0.358E-01
   0.144E+02 -.175E+02 0.215E+04   -.144E+02 0.175E+02 -.215E+04   -.213E-02 0.680E-02 -.120E+01   0.605E-02 -.307E-01 0.434E-01
   0.113E+02 -.168E+02 0.215E+04   -.113E+02 0.168E+02 -.215E+04   0.250E-03 0.100E-01 -.120E+01   0.330E-02 -.153E-01 0.369E-01
   0.602E+01 -.110E+02 0.215E+04   -.602E+01 0.110E+02 -.215E+04   -.772E-03 0.953E-02 -.119E+01   0.913E-03 -.304E-02 0.370E-01
[...]
   0.700E+02 0.191E+02 -.170E+03   -.754E+02 -.197E+02 0.169E+03   0.536E+01 0.605E+00 0.118E+01   0.219E-03 0.181E-03 -.144E-01
   0.572E+01 0.366E+02 -.176E+03   -.493E+01 -.384E+02 0.181E+03   -.811E+00 0.175E+01 -.509E+01   0.208E-03 0.153E-04 -.133E-01
   -.907E+02 -.113E+03 -.701E+03   0.909E+02 0.113E+03 0.701E+03   -.240E+00 0.111E+00 -.488E-01   -.269E-03 0.250E-02 -.564E-01
   -.117E+03 0.232E+02 -.697E+03   0.116E+03 -.232E+02 0.697E+03   0.295E+00 0.595E-01 -.293E+00   -.213E-03 0.167E-02 -.560E-01
   0.255E+02 -.923E+02 -.687E+03   -.254E+02 0.922E+02 0.687E+03   -.685E-02 0.120E+00 0.264E-01   -.431E-03 0.112E-02 -.571E-01
   -.692E+02 0.507E+02 -.677E+03   0.688E+02 -.505E+02 0.678E+03   0.317E+00 -.129E+00 -.363E-01   -.163E-02 -.499E-03 -.582E-01
   0.545E+02 -.803E+02 -.669E+03   -.545E+02 0.802E+02 0.669E+03   0.155E+00 0.106E+00 0.932E-01   -.207E-02 -.131E-02 -.599E-01
   -.594E+02 0.631E+02 -.666E+03   0.594E+02 -.630E+02 0.666E+03   0.478E-01 -.839E-01 0.176E+00   -.291E-02 -.244E-02 -.617E-01
   0.640E+02 -.663E+02 -.667E+03   -.638E+02 0.663E+02 0.667E+03   -.180E+00 -.342E-01 0.686E-01   -.255E-02 -.262E-02 -.636E-01
   -.511E+02 0.745E+02 -.674E+03   0.514E+02 -.743E+02 0.674E+03   -.360E+00 -.215E+00 0.144E+00   -.294E-02 -.186E-02 -.637E-01
   0.705E+02 -.489E+02 -.682E+03   -.701E+02 0.487E+02 0.683E+03   -.415E+00 0.197E+00 -.595E+00   -.595E-03 -.672E-03 -.653E-01
   -.253E+02 0.865E+02 -.689E+03   0.253E+02 -.866E+02 0.689E+03   0.195E-01 0.791E-01 0.226E+00   0.929E-04 0.142E-02 -.620E-01
   0.116E+03 -.186E+02 -.693E+03   -.116E+03 0.185E+02 0.693E+03   -.222E+00 0.773E-01 -.573E+00   0.217E-02 0.162E-02 -.616E-01
   0.846E+02 0.116E+03 -.687E+03   -.849E+02 -.117E+03 0.687E+03   0.198E+00 0.162E+00 0.118E+00   0.238E-02 0.190E-02 -.586E-01
   0.719E+00 -.668E+00 -.297E+02   -.408E-11 -.252E-11 0.221E-10   -.717E+00 0.682E+00 0.181E+00   -.117E-01 -.400E-03 0.309E+02

 POSITION                                       TOTAL-FORCE (eV/Angst)
      0.00000      0.00000      0.00000        -0.000454      0.000393      0.011840
      2.42992      1.40291      0.00000         0.000867      0.000208      0.013992
      4.85984      2.80583      0.00000         0.002765      0.001603      0.010038
      4.85984      0.00000      0.00000         0.001221     -0.003885      0.009623
      7.28975      1.40291      0.00000         0.000420     -0.001932      0.009879
      9.71967      2.80583      0.00000         0.001672     -0.002909      0.011413
     21.86926      4.20874      0.00000        -0.000696      0.001788      0.019216
      4.85984      5.61166      0.00000        -0.000441      0.002827      0.003616
      7.28975      7.01457      0.00000        -0.002482      0.000040      0.006779
      7.28975      4.20874      0.00000        -0.006384      0.001497      0.009751
      9.71967      5.61166      0.00000        -0.006114     -0.002595      0.003900
     12.14959      7.01457      0.00000         0.002482      0.000169      0.004055
      1.61995      0.00000      2.29095        -0.003957      0.000399     -0.004588
      1.61995      2.80583      2.29095        -0.003530     -0.007506      0.004487
      4.04986      1.40291      2.29095        -0.003428     -0.000982     -0.005214
      6.47978      0.00000      2.29095         0.004221      0.006213     -0.003942
      6.47978      2.80583      2.29095         0.004661      0.001347     -0.002031
      8.90970      1.40291      2.29095        -0.004848      0.004070     -0.016765
      4.04986      4.20874      2.29095         0.001016     -0.001484      0.002135
     23.48921      7.01457      2.29095        -0.003810     -0.015821     -0.004070
      6.47978      5.61166      2.29095         0.019923     -0.003922      0.009490
      8.90970      4.20874      2.29095         0.014557      0.011285      0.003526
      8.90970      7.01457      2.29095        -0.002550     -0.016692     -0.018784
     11.33962      5.61166      2.29095         0.003830      0.005534      0.005825
      0.81121      1.40258      4.54257        -0.001339      0.004217      0.000307
      3.23872      0.00084      4.54109         0.000167      0.003225      0.002079
      3.23899      2.80557      4.54304        -0.003082      0.000945     -0.003487
      5.66714      1.40472      4.53999         0.003920     -0.000589      0.008526
      8.09974      0.00329      4.54122        -0.004971     -0.008183      0.001996
      8.09896      2.80683      4.53981        -0.004479      0.006129      0.002651
      3.23989      5.60826      4.54450        -0.000039      0.004807     -0.009415
      5.66883      4.21008      4.54083         0.000201     -0.006518     -0.008871
      5.66741      7.01151      4.54059        -0.003813     -0.001706     -0.003023
      8.10219      5.61247      4.54294        -0.004242     -0.004836      0.001522
     10.53044      4.21152      4.54348         0.004398     -0.005767      0.003367
     10.52526      7.01374      4.53718         0.004305      0.003391     -0.001079
      0.00150      0.00054      6.83236        -0.001372     -0.002487     -0.000473
      2.43051      1.40284      6.83364        -0.001298      0.003345     -0.000872
      4.85872      2.80681      6.83291         0.002251     -0.003095      0.002269
      4.85842      0.00107      6.83196         0.007841     -0.000111     -0.000065
      7.28549      1.40360      6.83030         0.006200     -0.005840      0.010023
      9.71799      2.79511      6.82432        -0.002477      0.003105      0.001784
      2.43028      4.20757      6.83524        -0.002347      0.010639     -0.004547
      4.86025      5.61037      6.83524        -0.003224      0.012417     -0.008599
      7.28381      7.02029      6.82975        -0.002926     -0.005843     -0.002738
      7.28512      4.20647      6.83084        -0.001616     -0.002299     -0.003073
      9.71162      5.61548      6.83643         0.001305      0.000288     -0.000132
     12.14561      7.02412      6.82612        -0.002910      0.007070     -0.003029
      4.85984      8.41748      0.00000         0.007661      0.005984      0.014164
      7.28975      9.82040      0.00000         0.005990      0.001705      0.009248
      9.71967     11.22331      0.00000         0.001082     -0.002720      0.008909
      9.71967      8.41748      0.00000         0.010481      0.003664      0.015243
     12.14959      9.82040      0.00000         0.009071      0.004528      0.000093
     14.57951     11.22331      0.00000        -0.004086     -0.003395     -0.003523
      7.28975     12.62622      0.00000         0.001052     -0.001388      0.006118
      9.71967     14.02914      0.00000         0.000061     -0.000778      0.010324
     12.14959     15.43205      0.00000        -0.000931     -0.000721      0.013331
     12.14959     12.62622      0.00000        -0.004148     -0.006468      0.010423
     14.57951     14.02914      0.00000        -0.001811     -0.005303      0.009427
     17.00943     15.43205      0.00000        -0.001021     -0.002534      0.012923
[...]
     10.21632      3.12552      9.55032        -0.007369      0.012700      0.009225
      8.58499      3.68858      9.98949        -0.014200     -0.005272      0.006368
      9.82262      3.45592     11.25534         0.003222      0.001629     -0.006110
     19.88001     13.44918     10.10382         0.015719      0.001848      0.009908
     19.35078     12.02299     10.07181        -0.019663      0.018964     -0.000970
     17.83794     11.91681     10.21666        -0.022590     -0.016685     -0.006244
     17.35230     10.47332     10.20032        -0.010600      0.001887      0.022103
     15.84147     10.29510     10.30722         0.050362      0.019007     -0.012590
     15.44163      8.82326     10.32183         0.006453     -0.008350      0.022918
     13.93698      8.59078     10.26019        -0.016494     -0.004270      0.006524
     13.55370      7.11566     10.33293        -0.024631     -0.053590     -0.025176
     12.07140      6.87462     10.07792        -0.026100     -0.013629     -0.016293
     11.61248      5.43382     10.26114         0.051051      0.017264      0.029398
     10.11828      5.23691     10.04283         0.029037      0.017972      0.020190
      9.65383      3.80022     10.22222         0.000429     -0.049325     -0.017967
    total drift:                               -0.009966      0.014263      1.405281

  FREE ENERGIE OF THE ION-ELECTRON SYSTEM (eV)
  free  energy   TOTEN  =     -1338.92911787 eV

  energy  without entropy=    -1338.69685625  energy(sigma->0) =    -1338.81298706

[...]

  free energy =  -0.131660325341E+04  energy without entropy=  -0.131637105005E+04

[...]

 d Force = 0.3181807E-03[ 0.182E-03, 0.454E-03]  d Energy = 0.7356023E-03-0.417E-03
 d Force =-0.1027832E+01[-0.103E+01,-0.103E+01]  d Ewald  =-0.1027832E+01-0.488E-06

 Steepest descent step on ions:
 trial-energy change:   -0.000736  1 .order   -0.000318   -0.000454   -0.000182
  (g-gl).g = 0.454E-03      g.g   = 0.454E-03  gl.gl    = 0.000E+00
 g(Force)  = 0.454E-03   g(Stress)= 0.000E+00 ortho     = 0.000E+00
 gamma     =   0.00000
 trial     =   1.00000
 opt step  =   1.06206  (harmonic =   1.66799) maximal distance =0.00078470
 next E    = -1338.929859   (d E  =  -0.00074)

[...]

 d Force =-0.4541014E-05[-0.374E-04, 0.283E-04]  d Energy = 0.1376711E-04-0.183E-04
 d Force =-0.5108973E+00[-0.511E+00,-0.511E+00]  d Ewald  =-0.5108970E+00-0.258E-06

[...]

 d Force = 0.1152618E-04[ 0.178E-05, 0.213E-04]  d Energy = 0.2294220E-04-0.114E-04
 d Force = 0.2908193E+00[ 0.291E+00, 0.291E+00]  d Ewald  = 0.2908193E+00-0.531E-07

[...]

 eigenvalue-minimisations  : 11952
 total energy-change (2. order) :-0.5348312E-04  (-0.2178298E-04)
 number of electron    1994.0000646 magnetization
 augmentation part      598.2258509 magnetization

[...]

 eigenvalues of (default mixing * dielectric matrix)
  average eigenvalue GAMMA=   0.3660
  0.8423  0.0618  0.1939

[...]

--------------------------------------- Iteration      8(   5)  ---------------------------------------

 eigenvalue-minimisations  :  6127
 total energy-change (2. order) : 0.2270099E-07  (-0.3668851E-06)
 number of electron    1994.0000646 magnetization
 augmentation part      598.2257614 magnetization

 DIPCOR: dipole corrections for dipol
 direction  3 min pos   154,
 dipolmoment           0.000000      0.000000     -0.706280 electrons x Angstroem
 Tr[quadrupol]   -130966.325290

 energy correction for charged system         0.000000 eV
 dipol+quadrupol energy correction           -0.007253 eV
 added-field ion interaction        -20.476621 eV  (added to PSCEN)

  free energy =  -0.131660387626E+04  energy without entropy=  -0.131637167419E+04

------------------------ aborting loop because EDIFF is reached ----------------------------------------

  Number of pair interactions contributing to vdW energy: 1079236
  Edisp (eV):  -22.32642

  FORCE on cell =-STRESS in cart. coord.  units (eV):
  Direction    XX          YY          ZZ          XY          YZ          ZX
  Alpha Z  5654.60063  5654.60063  5654.60063
  Ewald  448508.64519448500.99345************  2353.71837   -35.40675    16.98014
  Hartree485129.50566485158.31508************  2076.20153   -29.09740    11.98465
  E(xc)   -8751.89055 -8751.92336 -8805.32058     0.38732     0.02906     0.05238
  Local  ************************988741.55910 -4443.21421    65.48710   -29.43205
  n-local   738.62504   739.84455   617.74392     2.30416    -0.66551    -0.17951
  augment 10020.61766 10019.87151 10296.84805    -0.09943     0.23073     0.16361
  Kinetic 28679.83656 28678.34117 29390.46481    11.64459    -0.96659    -0.02372
  Fock        0.00000     0.00000     0.00000     0.00000     0.00000     0.00000
  vdW       -31.55622   -31.38574   -24.16922    -0.80680     0.06942     0.08280
  Total    -213.56434  -213.74163    -3.16039     0.13554    -0.31994    -0.37168
  in kB     -52.27758   -52.32098    -0.77362     0.03318    -0.07832    -0.09098

  FREE ENERGIE OF THE ION-ELECTRON SYSTEM (eV)
  free  energy   TOTEN  =     -1338.93029841 eV

  energy  without entropy=    -1338.69809634  energy(sigma->0) =    -1338.81419737

 d Force = 0.1320182E-03[ 0.925E-04, 0.171E-03]  d Energy = 0.1373516E-03-0.533E-05
 d Force =-0.1191301E+00[-0.119E+00,-0.119E+00]  d Ewald  =-0.1191300E+00-0.110E-06

 Conjugate gradient step on ions:
 trial-energy change:   -0.000137  1 .order   -0.000132   -0.000171   -0.000093
  (g-gl).g = 0.160E-03      g.g   = 0.154E-03  gl.gl    = 0.454E-03
 g(Force)  = 0.154E-03   g(Stress)= 0.000E+00 ortho     =-0.632E-05
 gamma     =   0.35291
 trial     =   1.12966
 opt step  =   2.45360  (harmonic =   2.45360) maximal distance =0.00088697
 next E    = -1338.930347   (d E  =  -0.00019)

 reached required accuracy - stopping structural energy minimisation