 vasp.5.4.4.18Apr17-6-g9f103f2a35 (build Jun 30 2017 19:19:18) complex

 executed on         MareNostrum4 date 2022.04.04  10:28:33

 INCAR:
 POTCAR:    PAW_PBE Ag 02Apr2005
 POTCAR:    PAW_PBE C 08Apr2002
 POTCAR:    PAW_PBE N 08Apr2002
 POTCAR:    PAW_PBE H 15Jun2001
 POTCAR:    PAW_PBE Ag 02Apr2005

 POTCAR:    PAW_PBE C 08Apr2002

 POTCAR:    PAW_PBE N 08Apr2002

 POTCAR:    PAW_PBE H 15Jun2001

 Optimization of the real space projectors (new method)

 maximal supplied QI-value         = 15.12
 optimisation between [QCUT,QGAM] = [ 10.73, 21.62] = [ 32.26,130.87] Ry
 Optimized for a Real-space Cutoff    1.42 Angstroem

   l    n(q)    QCUT    max X(q) W(low)/X(q) W(high)/X(q)  e(spline)
   2      8    10.734    53.897    0.46E-03    0.48E-03    0.17E-06
   2      8    10.734    52.416    0.47E-03    0.50E-03    0.17E-06
   0      9    10.734   122.045    0.16E-03    0.13E-03    0.44E-07
   0      9    10.734    73.629    0.16E-03    0.13E-03    0.43E-07
   1      9    10.734    15.255    0.66E-04    0.32E-03    0.15E-06
   1      9    10.734     9.562    0.55E-04    0.26E-03    0.12E-06
 Optimization of the real space projectors (new method)

[...]

   l    n(q)    QCUT    max X(q) W(low)/X(q) W(high)/X(q)  e(spline)
   0      8    10.807    79.467    0.34E-03    0.68E-03    0.21E-06
   0      8    10.807    66.151    0.34E-03    0.67E-03    0.21E-06
   1      7    10.807    14.030    0.45E-03    0.13E-02    0.11E-05
   1      7    10.807     9.831    0.48E-03    0.13E-02    0.11E-05
 Optimization of the real space projectors (new method)

 maximal supplied QI-value         = 34.20
 optimisation between [QCUT,QGAM] = [ 10.60, 21.55] = [ 31.48,130.03] Ry
 Optimized for a Real-space Cutoff    1.23 Angstroem

   l    n(q)    QCUT    max X(q) W(low)/X(q) W(high)/X(q)  e(spline)
   0      8    10.603    19.460    0.37E-03    0.59E-03    0.23E-06
   0      8    10.603    12.209    0.35E-03    0.56E-03    0.22E-06
   1      7    10.603     4.655    0.70E-04    0.28E-03    0.29E-06
  PAW_PBE Ag 02Apr2005                  :
  PAW_PBE C 08Apr2002                   :
  PAW_PBE N 08Apr2002                   :
  PAW_PBE H 15Jun2001                   :

 POSCAR: Ag  C  N  H
  positions in direct lattice
  velocities in cartesian coordinates
 exchange correlation table for  LEXCH =        8
   RHO(1)=    0.500       N(1)  =     2000
   RHO(2)=  100.500       N(2)  =     4000

 ion  position               nearest neighbor table
   1  0.000  0.000  0.000-  28 2.89   4 2.89   3 2.89  35 2.89  10 2.89   2 2.89  70 2.89  40 2.89
                            47 2.89
   2  1.000  0.167  0.000-  27 2.89   8 2.89   5 2.89  28 2.89   3 2.89   1 2.89  39 2.89  61 2.89
                            40 2.89
   3  0.167  0.167  0.000-  14 2.89  17 2.89   8 2.89   2 2.89   1 2.89   4 2.89  38 2.89  40 2.89
                            37 2.89
   4  0.167  0.000  0.000-  13 2.89  14 2.89   1 2.89  11 2.89  10 2.89   3 2.89  37 2.89  47 2.89
                            46 2.89
   5  0.000  0.333  0.000-   8 2.89  27 2.89   2 2.89  32 2.89   6 2.89   7 2.89  62 2.89  44 2.89
                            39 2.89
   6  0.000  0.500  0.000-  12 2.89   7 2.89   9 2.89  31 2.89   5 2.89  32 2.89  43 2.89  65 2.89
                            44 2.89
   7  0.167  0.500  0.000-   6 2.89  18 2.89  21 2.89  12 2.89   5 2.89   8 2.89  42 2.89  44 2.89
                            41 2.89
   8  0.167  0.333  0.000-   5 2.89   2 2.89   3 2.89  17 2.89  18 2.89   7 2.89  39 2.89  41 2.89
                            38 2.89
   9  0.000  0.667  0.000-  12 2.89  36 2.89  31 2.89  11 2.89   6 2.89  10 2.89  66 2.89  48 2.89
                            43 2.89
  10  1.000  0.833  0.000-  36 2.89  35 2.89   9 2.89  11 2.89   1 2.89   4 2.89  69 2.89  47 2.89
                            48 2.89
  11  0.167  0.833  0.000-  22 2.89   9 2.89  12 2.89  10 2.89   4 2.89  13 2.89  46 2.89  48 2.89
                            45 2.89
  12  0.167  0.667  0.000-   6 2.89   9 2.89  22 2.89  11 2.89   7 2.89  21 2.89  43 2.89  45 2.89
                            42 2.89
  13  0.333  0.000  0.000-   4 2.89  16 2.89  15 2.89  22 2.89  11 2.89  14 2.89  46 2.89  52 2.89
                            59 2.89
  14  0.333  0.167  0.000-   3 2.89  17 2.89   4 2.89  20 2.89  15 2.89  13 2.89  51 2.89  37 2.89
                            52 2.89
  15  0.500  0.167  0.000-  26 2.89  20 2.89  29 2.89  14 2.89  13 2.89  16 2.89  50 2.89  52 2.89
                            49 2.89
  16  0.500  0.000  0.000-  25 2.89  26 2.89  13 2.89  23 2.89  22 2.89  15 2.89  49 2.89  59 2.89
                            58 2.89
  17  0.333  0.333  0.000-  14 2.89   3 2.89   8 2.89  20 2.89  19 2.89  18 2.89  38 2.89  56 2.89
                            51 2.89
  18  0.333  0.500  0.000-   7 2.89  21 2.89  24 2.89  19 2.89   8 2.89  17 2.89  55 2.89  41 2.89
                            56 2.89
  19  0.500  0.500  0.000-  30 2.89  24 2.89  33 2.89  18 2.89  17 2.89  20 2.89  54 2.89  56 2.89
                            53 2.89
  20  0.500  0.333  0.000-  29 2.89  15 2.89  30 2.89  14 2.89  17 2.89  19 2.89  53 2.89  51 2.89
                            50 2.89
  21  0.333  0.667  0.000-  18 2.89  23 2.89   7 2.89  22 2.89  12 2.89  24 2.89  42 2.89  60 2.89
                            55 2.89
  22  0.333  0.833  0.000-  11 2.89  12 2.89  21 2.89  23 2.89  13 2.89  16 2.89  45 2.89  59 2.89
                            60 2.89
  23  0.500  0.833  0.000-  34 2.89  21 2.89  24 2.89  22 2.89  25 2.89  16 2.89  58 2.89  60 2.89
                            57 2.89
  24  0.500  0.667  0.000-  34 2.89  33 2.89  19 2.89  23 2.89  18 2.89  21 2.89  57 2.89  55 2.89
                            54 2.89
  25  0.667  0.000  0.000-  16 2.89  28 2.89  23 2.89  27 2.89  34 2.89  26 2.89  58 2.89  64 2.89
                            71 2.89
  26  0.667  0.167  0.000-  15 2.89  32 2.89  29 2.89  16 2.89  27 2.89  25 2.89  63 2.89  49 2.89
                            64 2.89
  27  0.833  0.167  0.000-   2 2.89   5 2.89  32 2.89  26 2.89  25 2.89  28 2.89  62 2.89  64 2.89
                            61 2.89
  28  0.833  0.000  0.000-   1 2.89   2 2.89  25 2.89  35 2.89  34 2.89  27 2.89  61 2.89  71 2.89
                            70 2.89
  29  0.667  0.333  0.000-  20 2.89  32 2.89  15 2.89  26 2.89  31 2.89  30 2.89  50 2.89  68 2.89
                            63 2.89
  30  0.667  0.500  0.000-  19 2.89  33 2.89  20 2.89  36 2.89  31 2.89  29 2.89  67 2.89  53 2.89
                            68 2.89
  31  0.833  0.500  0.000-   9 2.89  36 2.89  30 2.89   6 2.89  32 2.89  29 2.89  66 2.89  68 2.89
                            65 2.89
  32  0.833  0.333  0.000-  29 2.89  26 2.89  27 2.89   5 2.89  31 2.89   6 2.89  63 2.89  65 2.89
                            62 2.89
  33  0.667  0.667  0.000-  24 2.89  19 2.89  30 2.89  35 2.89  34 2.89  36 2.89  54 2.89  72 2.89
                            67 2.89
  34  0.667  0.833  0.000-  24 2.89  23 2.89  33 2.89  35 2.89  25 2.89  28 2.89  57 2.89  71 2.89
                            72 2.89
  35  0.833  0.833  0.000-  10 2.89  33 2.89  36 2.89  34 2.89   1 2.89  28 2.89  70 2.89  72 2.89
                            69 2.89
  36  0.833  0.667  0.000-  10 2.89   9 2.89  31 2.89  35 2.89  30 2.89  33 2.89  69 2.89  67 2.89
                            66 2.89
  37  0.222  0.111  0.107-  52 2.89  51 2.89  38 2.89  40 2.89  46 2.89  47 2.89  14 2.89   4 2.89
                             3 2.89  76 2.90  74 2.91  75 2.92
  38  0.222  0.278  0.107-  79 2.89  51 2.89  37 2.89  56 2.89  40 2.89  39 2.89  41 2.89   3 2.89
                            17 2.89   8 2.89  76 2.90  73 2.92
  39  0.056  0.278  0.107-  62 2.89  61 2.89  40 2.89  38 2.89  44 2.89  41 2.89   2 2.89   8 2.89
                             5 2.89  73 2.91  78 2.91 100 2.91
  40  0.056  0.111  0.107-  61 2.89  39 2.89  70 2.89  38 2.89  37 2.89  47 2.89   1 2.89   3 2.89
                             2 2.89  99 2.91  74 2.91  73 2.91
  41  0.222  0.444  0.107-  56 2.89  55 2.89  42 2.89  44 2.89  39 2.89  38 2.89  18 2.89   8 2.89
                             7 2.89  79 2.89  80 2.90  78 2.91
  42  0.222  0.611  0.107-  80 2.89  55 2.89  41 2.89  60 2.89  44 2.89  43 2.89  45 2.89   7 2.89
                            21 2.89  12 2.89  83 2.91  77 2.91
  43  0.056  0.611  0.107-  66 2.89  65 2.89  44 2.89  42 2.89  48 2.89  45 2.89   6 2.89  12 2.89
                             9 2.89 104 2.91  77 2.91  82 2.91
  44  0.056  0.444  0.107-  65 2.89  43 2.89  62 2.89  42 2.89  41 2.89  39 2.89   5 2.89   7 2.89
                             6 2.89  78 2.91 103 2.91  77 2.91
  45  0.222  0.778  0.107-  60 2.89  59 2.89  46 2.89  48 2.89  42 2.89  43 2.89  22 2.89  12 2.89
                            11 2.89  83 2.90  82 2.91  84 2.91
  46  0.222  0.944  0.107-  59 2.89  45 2.89  52 2.89  48 2.89  47 2.89  37 2.89  13 2.89  11 2.89
                             4 2.89  81 2.91  75 2.91  84 2.91
  47  0.056  0.944  0.107-  70 2.89  69 2.89  48 2.89  46 2.89  40 2.89  37 2.89  10 2.89   4 2.89
                             1 2.89 108 2.91  81 2.91  74 2.91
  48  0.056  0.778  0.107-  69 2.89  47 2.89  66 2.89  46 2.89  45 2.89  43 2.89  11 2.89   9 2.89
                            10 2.89 107 2.90  81 2.91  82 2.91
  49  0.556  0.111  0.107-  64 2.89  63 2.89  50 2.89  52 2.89  58 2.89  59 2.89  26 2.89  16 2.89
                            15 2.89  88 2.90  87 2.91  86 2.91
  50  0.556  0.278  0.107-  91 2.87  63 2.89  49 2.89  68 2.89  52 2.89  51 2.89  53 2.89  15 2.89
                            29 2.89  20 2.89  85 2.90  88 2.91
  51  0.389  0.278  0.107-  90 2.88  38 2.89  37 2.89  52 2.89  50 2.89  53 2.89  56 2.89  14 2.89
                            20 2.89  17 2.89  85 2.90  76 2.91
  52  0.389  0.111  0.107-  85 2.88  37 2.89  51 2.89  46 2.89  50 2.89  49 2.89  59 2.89  13 2.89
                            15 2.89  14 2.89  86 2.91  75 2.92
  53  0.556  0.444  0.107-  91 2.89  92 2.89  68 2.89  67 2.89  54 2.89  56 2.89  51 2.89  50 2.89
                            30 2.89  20 2.89  19 2.89  90 2.90
  54  0.556  0.611  0.107-  92 2.88  67 2.89  53 2.89  72 2.89  56 2.89  55 2.89  57 2.89  19 2.89
                            33 2.89  24 2.89  89 2.89  95 2.91
  55  0.389  0.611  0.107-  89 2.89  42 2.89  41 2.89  56 2.89  54 2.89  60 2.89  57 2.89  18 2.89
                            24 2.89  21 2.89  80 2.90  94 2.91
  56  0.389  0.444  0.107-  90 2.89  41 2.89  55 2.89  38 2.89  54 2.89  53 2.89  51 2.89  17 2.89
                            19 2.89  18 2.89  89 2.90  79 2.90
  57  0.556  0.778  0.107-  72 2.89  71 2.89  58 2.89  60 2.89  54 2.89  55 2.89  34 2.89  24 2.89
                            23 2.89  95 2.90  94 2.91  96 2.91
  58  0.556  0.944  0.107-  71 2.89  57 2.89  64 2.89  60 2.89  59 2.89  49 2.89  25 2.89  23 2.89
                            16 2.89  96 2.91  87 2.91  93 2.91
  59  0.389  0.944  0.107-  46 2.89  45 2.89  60 2.89  58 2.89  52 2.89  49 2.89  22 2.89  16 2.89
                            13 2.89  86 2.91  84 2.91  93 2.91
  60  0.389  0.778  0.107-  45 2.89  59 2.89  42 2.89  58 2.89  57 2.89  55 2.89  23 2.89  21 2.89
[...]
   0.179E+01 0.260E+02 0.933E+03   -.180E+01 -.260E+02 -.933E+03   -.130E-02 -.183E-01 -.487E+00   -.148E-03 -.165E-04 0.139E-01
   -.337E+01 0.226E+02 0.909E+03   0.337E+01 -.226E+02 -.909E+03   -.190E-02 -.435E-01 -.446E+00   -.213E-03 0.136E-03 0.139E-01
   -.120E+02 0.708E+01 0.948E+03   0.120E+02 -.710E+01 -.948E+03   0.112E-02 0.106E-01 -.704E+00   -.138E-03 -.120E-03 0.138E-01
   -.189E+00 -.185E+02 0.948E+03   0.188E+00 0.185E+02 -.947E+03   -.121E-01 0.427E-01 -.725E+00   -.673E-04 -.170E-03 0.138E-01
   0.194E+02 -.139E+02 0.936E+03   -.194E+02 0.139E+02 -.935E+03   -.183E-01 0.447E-01 -.552E+00   -.501E-04 -.223E-03 0.138E-01
   0.132E+02 0.841E+01 0.948E+03   -.132E+02 -.841E+01 -.947E+03   -.129E-01 0.379E-02 -.601E+00   -.908E-04 -.181E-03 0.138E-01
   0.595E+01 -.260E+02 0.921E+03   -.596E+01 0.261E+02 -.921E+03   0.101E-02 -.313E-01 -.466E+00   -.161E-04 -.145E-03 0.138E-01
   0.201E+01 -.120E+02 0.900E+03   -.200E+01 0.120E+02 -.899E+03   -.755E-02 -.112E-01 -.402E+00   -.513E-04 -.395E-04 0.138E-01
   0.279E+01 0.414E+00 0.898E+03   -.277E+01 -.427E+00 -.897E+03   -.224E-01 0.124E-01 -.456E+00   -.135E-03 0.166E-04 0.139E-01
   0.136E+02 -.159E+02 0.910E+03   -.136E+02 0.160E+02 -.910E+03   0.339E-02 -.137E-01 -.404E+00   -.653E-04 -.144E-03 0.139E-01
[...]
   0.130E+03 0.117E+03 -.895E+03   -.131E+03 -.118E+03 0.895E+03   0.118E+01 0.832E+00 0.190E-02   0.296E-03 0.371E-03 -.234E-02
   0.504E+01 0.661E+02 -.896E+03   -.606E+01 -.614E+02 0.896E+03   0.838E+00 -.459E+01 0.515E-01   -.131E-03 0.317E-03 -.236E-02
   -.372E+02 0.258E+03 -.114E+04   0.377E+02 -.263E+03 0.116E+04   -.374E+00 0.463E+01 -.146E+02   -.200E-03 0.450E-03 -.318E-02
   0.241E+03 -.692E+02 -.115E+04   -.245E+03 0.716E+02 0.117E+04   0.449E+01 -.257E+01 -.172E+02   0.483E-03 -.140E-03 -.314E-02
   -.533E+02 -.678E+02 -.227E+03   0.574E+02 0.719E+02 0.227E+03   -.397E+01 -.416E+01 -.160E-01   -.950E-04 -.968E-04 -.605E-03
   0.148E+02 -.853E+02 -.228E+03   -.163E+02 0.909E+02 0.228E+03   0.152E+01 -.555E+01 -.317E-01   0.284E-05 -.200E-03 -.606E-03
   0.615E+02 0.613E+02 -.226E+03   -.653E+02 -.652E+02 0.226E+03   0.388E+01 0.407E+01 -.599E-01   0.122E-03 0.132E-03 -.620E-03
   -.753E+02 0.559E+02 -.216E+03   0.823E+02 -.578E+02 0.214E+03   -.700E+01 0.186E+01 0.158E+01   -.155E-03 0.798E-04 -.586E-03
   0.463E+02 0.838E+02 -.213E+03   -.513E+02 -.890E+02 0.210E+03   0.496E+01 0.508E+01 0.233E+01   0.622E-04 0.136E-03 -.571E-03
   0.487E+02 -.775E+02 -.211E+03   -.508E+02 0.842E+02 0.208E+03   0.196E+01 -.660E+01 0.274E+01   0.787E-04 -.149E-03 -.541E-03
   0.812E+02 0.471E+02 -.216E+03   -.860E+02 -.522E+02 0.215E+03   0.488E+01 0.520E+01 0.166E+01   0.148E-03 0.864E-04 -.584E-03
   -.455E+02 0.259E+02 -.234E+03   0.467E+02 -.280E+02 0.239E+03   -.131E+01 0.224E+01 -.468E+01   -.106E-03 0.153E-04 -.735E-03
   -.651E+02 -.451E+02 -.220E+03   0.683E+02 0.494E+02 0.220E+03   -.331E+01 -.436E+01 0.726E+00   -.981E-04 -.451E-04 -.613E-03
   -.483E+02 0.400E+02 -.211E+03   0.498E+02 -.432E+02 0.207E+03   -.144E+01 0.340E+01 0.361E+01   -.873E-04 0.253E-04 -.475E-03
   0.109E+01 0.306E+01 0.226E+02   0.000E+00 -.355E-13 0.132E-10   -.110E+01 -.310E+01 -.228E+02   -.118E-02 -.450E-03 0.136E+01

 POSITION                                       TOTAL-FORCE (eV/Angst)
      0.00000      0.00000      0.00000        -0.002059     -0.002149     -0.135891
     15.90463      2.50433      0.00000         0.000945      0.000055     -0.132504
      1.44588      2.50433      0.00000         0.002752      0.005661     -0.129658
      2.89175      0.00000      0.00000        -0.000298      0.005257     -0.130186
     -2.89175      5.00866      0.00000         0.000816     -0.000610     -0.129629
     -4.33763      7.51299      0.00000         0.000286     -0.000254     -0.134469
     -1.44588      7.51299      0.00000         0.001819     -0.000460     -0.131127
     -0.00000      5.00866      0.00000        -0.000942     -0.002602     -0.129079
     -5.78350     10.01732      0.00000        -0.006043      0.000256     -0.129467
     10.12113     12.52165      0.00000        -0.002797     -0.002909     -0.126798
     -4.33763     12.52165      0.00000        -0.002207     -0.003256     -0.128893
     -2.89175     10.01732      0.00000         0.000859     -0.003636     -0.129047
      5.78350      0.00000      0.00000         0.000639      0.005314     -0.131407
      4.33763      2.50433      0.00000        -0.002937     -0.001550     -0.127211
      7.22938      2.50433      0.00000         0.001949      0.004478     -0.131227
      8.67525      0.00000      0.00000         0.000606      0.001325     -0.132947
      2.89175      5.00866      0.00000        -0.005169     -0.012162     -0.126733
      1.44588      7.51299      0.00000        -0.012451     -0.001876     -0.126108
      4.33763      7.51299      0.00000         0.000514     -0.001687     -0.132608
      5.78350      5.00866      0.00000         0.004640     -0.010362     -0.127911
     -0.00000     10.01732      0.00000        -0.004078      0.001953     -0.124178
     -1.44588     12.52165      0.00000         0.006295     -0.001515     -0.125045
      1.44588     12.52165      0.00000        -0.002670      0.001663     -0.126816
      2.89175     10.01732      0.00000        -0.005626      0.005898     -0.127149
     11.56700      0.00000      0.00000         0.003049      0.001748     -0.130374
     10.12113      2.50433      0.00000         0.000437      0.000086     -0.131531
     13.01288      2.50433      0.00000        -0.001888     -0.001281     -0.131924
     14.45875      0.00000      0.00000        -0.000484     -0.001119     -0.130940
      8.67525      5.00866      0.00000         0.002629     -0.004213     -0.130581
      7.22938      7.51299      0.00000         0.010820      0.000635     -0.127850
     10.12113      7.51299      0.00000        -0.000360      0.000907     -0.132121
     11.56700      5.00866      0.00000        -0.000719      0.000692     -0.131408
      5.78350     10.01732      0.00000         0.007809      0.008413     -0.126512
      4.33763     12.52165      0.00000         0.003079      0.009129     -0.124556
      7.22938     12.52165      0.00000        -0.000962      0.001601     -0.127289
      8.67525     10.01732      0.00000         0.006818      0.001039     -0.129004
      2.89178      1.66954      2.36115         0.002886     -0.013866      0.124915
      1.44590      4.17386      2.36115        -0.009972     -0.018580      0.113360
     -1.44585      4.17386      2.36115        -0.001852     -0.000506      0.133914
      0.00003      1.66954      2.36115        -0.000427     -0.004581      0.135169
      0.00003      6.67819      2.36115        -0.017114     -0.004142      0.094644
     -1.44585      9.18252      2.36115        -0.017817      0.003077      0.110669
     -4.33760      9.18252      2.36115         0.008328      0.005207      0.130780
     -2.89172      6.67819      2.36115        -0.004322      0.005165      0.132834
     -2.89172     11.68685      2.36115        -0.004714      0.003804      0.122316
     -4.33760     14.19118      2.36115         0.001406      0.006021      0.138266
     -7.22935     14.19118      2.36115        -0.001152      0.001885      0.136090
     -5.78347     11.68685      2.36115         0.004963      0.003421      0.119830
      8.67528      1.66954      2.36115        -0.000173     -0.013887      0.128481
      7.22940      4.17386      2.36115         0.009517     -0.026444      0.074249
      4.33765      4.17386      2.36115        -0.004665     -0.010491      0.087424
      5.78353      1.66954      2.36115        -0.001316     -0.030221      0.109063
      5.78353      6.67819      2.36115        -0.006475     -0.002861      0.044838
      4.33765      9.18252      2.36115        -0.013082      0.015704      0.051813
      1.44590      9.18252      2.36115        -0.004796      0.014510      0.084748
      2.89178      6.67819      2.36115        -0.005337      0.004418      0.070048
      2.89178     11.68685      2.36115        -0.005662      0.009377      0.120390
      1.44590     14.19118      2.36115        -0.000104     -0.000956      0.137964
     -1.44585     14.19118      2.36115        -0.001584     -0.000061      0.132641
      0.00003     11.68685      2.36115         0.001499      0.008627      0.128831
[...]
      2.67335      8.26259     10.04732        -0.243274     -0.151109      0.046626
      3.07034      6.91320     10.02647         0.069484     -0.166416      0.068582
      4.43336      6.54953     10.06202        -0.151019      0.115138     -0.060210
      4.79147      5.21993     10.12354         0.103705      0.032937      0.125812
      1.32587      8.58739     10.14299         0.133490     -0.105982      0.018504
      5.76655      9.68220      9.99650         0.073021      0.000517      0.001828
      3.36589     10.31765     10.00502         0.038853      0.065069      0.070126
      2.31321      6.11993     10.03855         0.055765      0.129768      0.027484
      5.75082      4.97820      9.88893        -0.012063     -0.020691      0.027626
      4.11298      4.54084      9.79482        -0.080274     -0.101623      0.000309
      1.06714      9.48878      9.75167        -0.080215      0.134714      0.005266
      0.65983      7.85540      9.89432         0.072792      0.057615      0.026592
      7.14072      6.72992     11.10252        -0.067787      0.082285     -0.111745
      7.52622      8.07798      9.98718        -0.080104     -0.032871      0.054648
      7.16763      6.45965      9.34823        -0.033005      0.081854      0.144200
    total drift:                               -0.013327     -0.034733      1.134706

  FREE ENERGIE OF THE ION-ELECTRON SYSTEM (eV)
  free  energy   TOTEN  =      -494.51332094 eV

  energy  without entropy=     -494.49158135  energy(sigma->0) =     -494.50245114

[...]

  free energy =  -0.483836429105E+03  energy without entropy=  -0.483814685939E+03

[...]

 d Force = 0.5311553E-02[ 0.198E-02, 0.864E-02]  d Energy = 0.5367697E-02-0.561E-04
 d Force = 0.8499684E+00[ 0.840E+00, 0.860E+00]  d Ewald  = 0.8499709E+00-0.248E-05

 Steepest descent step on ions:
 trial-energy change:   -0.005368  1 .order   -0.005312   -0.008642   -0.001981
  (g-gl).g = 0.864E-02      g.g   = 0.864E-02  gl.gl    = 0.000E+00
 g(Force)  = 0.864E-02   g(Stress)= 0.000E+00 ortho     = 0.000E+00
 gamma     =   0.00000
 trial     =   1.00000
 opt step  =   1.27925  (harmonic =   1.29731) maximal distance =0.00548099
 next E    =  -494.518966   (d E  =  -0.00565)

[...]

 d Force = 0.2283245E-02[ 0.117E-02, 0.340E-02]  d Energy = 0.2374976E-02-0.917E-04
 d Force =-0.5879125E+00[-0.590E+00,-0.586E+00]  d Ewald  =-0.5879083E+00-0.424E-05

 Conjugate gradient step on ions:
 trial-energy change:   -0.002375  1 .order   -0.002283   -0.003395   -0.001171
  (g-gl).g = 0.303E-02      g.g   = 0.317E-02  gl.gl    = 0.864E-02
 g(Force)  = 0.317E-02   g(Stress)= 0.000E+00 ortho     = 0.135E-03
 gamma     =   0.35103
 trial     =   1.05585
 opt step  =   1.46932  (harmonic =   1.61169) maximal distance =0.00335064
 next E    =  -494.521613   (d E  =  -0.00261)

[...]

 d Force = 0.6644335E-03[ 0.482E-03, 0.847E-03]  d Energy = 0.7390411E-03-0.746E-04
 d Force =-0.2405536E+00[-0.242E+00,-0.239E+00]  d Ewald  =-0.2405553E+00 0.170E-05

[...]

 d Force = 0.2543332E-03[-0.456E-03, 0.965E-03]  d Energy = 0.4056317E-03-0.151E-03
 d Force =-0.4896616E+00[-0.495E+00,-0.484E+00]  d Ewald  =-0.4896622E+00 0.595E-06

[...]

 d Force = 0.7281898E-04[-0.745E-06, 0.146E-03]  d Energy = 0.2410770E-04 0.487E-04
 d Force = 0.1584178E+00[ 0.158E+00, 0.159E+00]  d Ewald  = 0.1584166E+00 0.116E-05

[...]

 Conjugate gradient step on ions:
 trial-energy change:   -0.002355  1 .order   -0.001902   -0.002131   -0.001674
  (g-gl).g = 0.582E-02      g.g   = 0.557E-02  gl.gl    = 0.309E-02
 g(Force)  = 0.557E-02   g(Stress)= 0.000E+00 ortho     =-0.662E-04
 gamma     =   1.88481
 trial     =   0.39098
 opt step  =   1.56392  (harmonic =   1.82360) maximal distance =0.01907359
 next E    =  -494.554759   (d E  =  -0.00497)

[...]

 d Force = 0.1481340E-03[-0.278E-04, 0.324E-03]  d Energy =-0.1790424E-03 0.327E-03
 d Force =-0.3529752E+02[-0.353E+02,-0.353E+02]  d Ewald  =-0.3529752E+02 0.358E-05

[...]

 d Force =-0.2980442E-04[-0.199E-03, 0.139E-03]  d Energy = 0.2027628E-03-0.233E-03
 d Force = 0.2574069E+02[ 0.257E+02, 0.257E+02]  d Ewald  = 0.2574070E+02-0.231E-06

[...]

 d Force = 0.5481385E-04[-0.736E-05, 0.117E-03]  d Energy =-0.7895444E-04 0.134E-03
 d Force =-0.1513849E+02[-0.151E+02,-0.151E+02]  d Ewald  =-0.1513849E+02 0.337E-06

[...]

 d Force =-0.5149211E-05[-0.518E-04, 0.415E-04]  d Energy = 0.1179963E-03-0.123E-03
 d Force = 0.1506215E+02[ 0.151E+02, 0.151E+02]  d Ewald  = 0.1506215E+02-0.511E-07

[...]

 Conjugate gradient step on ions:
 trial-energy change:   -0.000140  1 .order   -0.000106   -0.000140   -0.000071
  (g-gl).g = 0.128E-03      g.g   = 0.138E-03  gl.gl    = 0.169E-03
 g(Force)  = 0.138E-03   g(Stress)= 0.000E+00 ortho     = 0.368E-05
 gamma     =   0.75592
 trial     =   0.99409
 opt step  =   2.02824  (harmonic =   2.02824) maximal distance =0.00159162
 next E    =  -494.631325   (d E  =  -0.00014)

[...]

 d Force = 0.1451399E-04[-0.450E-06, 0.295E-04]  d Energy = 0.3672799E-04-0.222E-04
 d Force = 0.2460502E+01[ 0.246E+01, 0.246E+01]  d Ewald  = 0.2460501E+01 0.718E-06

 real space projection operators:
  max/ min on nodes  :      10728.70      10231.06

[...]

 eigenvalue-minimisations  :  5437
 total energy-change (2. order) :-0.2132845E-05  (-0.3352799E-06)
 number of electron    1632.0000826 magnetization
 augmentation part      758.8669382 magnetization

[...]

 eigenvalues of (default mixing * dielectric matrix)
  average eigenvalue GAMMA=   1.1869
  2.2221  0.9582  0.3805

[...]

--------------------------------------- Iteration    102(   5)  ---------------------------------------

 eigenvalue-minimisations  :  3477
 total energy-change (2. order) : 0.2266839E-05  (-0.9529908E-07)
 number of electron    1632.0000826 magnetization
 augmentation part      758.8669382 magnetization

 DIPCOR: dipole corrections for dipol
 direction  3 min pos   166,
 dipolmoment           0.000000      0.000000     -0.169426 electrons x Angstroem
 Tr[quadrupol]    -85898.875588

 energy correction for charged system         0.000000 eV
 dipol+quadrupol energy correction           -0.000456 eV
 added-field ion interaction         -3.336838 eV  (added to PSCEN)

  free energy =  -0.484028142619E+03  energy without entropy=  -0.484007313630E+03

------------------------ aborting loop because EDIFF is reached ----------------------------------------

  Number of pair interactions contributing to vdW energy:  618044
  Edisp (eV):  -10.60350

  FORCE on cell =-STRESS in cart. coord.  units (eV):
  Direction    XX          YY          ZZ          XY          YZ          ZX
  Alpha Z  3216.22557  3216.22557  3216.22557
  Ewald  480400.54214479900.65491************  -337.38037   -44.48169   124.55405
  Hartree521977.72226521548.27898************  -280.73727   -32.69086    82.02134
  E(xc)   -8535.78212 -8535.85593 -8563.13961    -0.07827    -0.06238     0.19890
  Local  ************************************   620.85316    78.02295  -200.90929
  n-local -1305.73564 -1306.76400 -1350.88092    -1.06754     0.12172     0.20361
  augment 13238.24298 13238.11480 13291.17938    -0.09192    -0.04968    -0.12296
  Kinetic 20313.60929 20309.38794 20548.08868    -1.48160    -0.71152    -6.06259
  Fock        0.00000     0.00000     0.00000     0.00000     0.00000     0.00000
  vdW       -15.06755   -14.89423   -11.34400     0.09421    -0.07348     0.00093
  Total      10.06931    10.18604     9.96886     0.11039     0.07506    -0.11600
  in kB       2.80215     2.83464     2.77420     0.03072     0.02089    -0.03228

  FREE ENERGIE OF THE ION-ELECTRON SYSTEM (eV)
  free  energy   TOTEN  =      -494.63164061 eV

  energy  without entropy=     -494.61081163  energy(sigma->0) =     -494.62122612

 d Force = 0.6898627E-04[ 0.409E-04, 0.970E-04]  d Energy = 0.9472634E-04-0.257E-04
 d Force = 0.2728151E+01[ 0.273E+01, 0.273E+01]  d Ewald  = 0.2728150E+01 0.151E-05

 Conjugate gradient step on ions:
 trial-energy change:   -0.000095  1 .order   -0.000069   -0.000097   -0.000041
  (g-gl).g = 0.654E-04      g.g   = 0.717E-04  gl.gl    = 0.929E-04
 g(Force)  = 0.717E-04   g(Stress)= 0.000E+00 ortho     =-0.559E-06
 gamma     =   0.70327
 trial     =   1.36186
 opt step  =   2.35510  (harmonic =   2.35510) maximal distance =0.00142603
 next E    =  -494.631630   (d E  =  -0.00008)

 reached required accuracy - stopping structural energy minimisation