 vasp.5.4.4.18Apr17-6-g9f103f2a35 (build Jun 30 2017 19:19:18) complex

 executed on         MareNostrum4 date 2022.04.19  22:26:08

 INCAR:
 POTCAR:    PAW_PBE Ni 02Aug2007
 POTCAR:    PAW_PBE C 08Apr2002
 POTCAR:    PAW_PBE H 15Jun2001
 POTCAR:    PAW_PBE O 08Apr2002

 POTCAR:    PAW_PBE Ni 02Aug2007

 POTCAR:    PAW_PBE C 08Apr2002

 POTCAR:    PAW_PBE H 15Jun2001

 POTCAR:    PAW_PBE O 08Apr2002

 Optimization of the real space projectors (new method)

 maximal supplied QI-value         = 16.25
 optimisation between [QCUT,QGAM] = [ 10.73, 21.61] = [ 32.22,130.83] Ry
 Optimized for a Real-space Cutoff    1.34 Angstroem

   l    n(q)    QCUT    max X(q) W(low)/X(q) W(high)/X(q)  e(spline)
   2      8    10.726    60.317    0.47E-03    0.39E-03    0.97E-07
   2      8    10.726    55.921    0.48E-03    0.39E-03    0.10E-06
   0      9    10.726    51.690    0.35E-03    0.32E-03    0.97E-07
   0      9    10.726    30.015    0.31E-03    0.29E-03    0.88E-07
   1      8    10.726    18.849    0.34E-03    0.47E-04    0.17E-06
   1      8    10.726    14.624    0.29E-03    0.31E-04    0.15E-06
 Optimization of the real space projectors (new method)

[...]

   l    n(q)    QCUT    max X(q) W(low)/X(q) W(high)/X(q)  e(spline)
   0      8    10.603    19.460    0.37E-03    0.59E-03    0.23E-06
   0      8    10.603    12.209    0.35E-03    0.56E-03    0.22E-06
   1      7    10.603     4.655    0.70E-04    0.28E-03    0.29E-06
 Optimization of the real space projectors (new method)

 maximal supplied QI-value         = 24.76
 optimisation between [QCUT,QGAM] = [ 10.64, 21.54] = [ 31.73,129.89] Ry
 Optimized for a Real-space Cutoff    1.23 Angstroem

   l    n(q)    QCUT    max X(q) W(low)/X(q) W(high)/X(q)  e(spline)
   0      8    10.645    20.381    0.38E-03    0.60E-03    0.15E-06
   0      8    10.645    15.268    0.40E-03    0.65E-03    0.17E-06
   1      7    10.645     5.964    0.30E-03    0.63E-03    0.18E-06
   1      7    10.645     5.382    0.24E-03    0.53E-03    0.16E-06
  PAW_PBE Ni 02Aug2007                  :
  PAW_PBE C 08Apr2002                   :
  PAW_PBE H 15Jun2001                   :
  PAW_PBE O 08Apr2002                   :

 POSCAR: Ni  C  H  O
  positions in cartesian coordinates
 exchange correlation table for  LEXCH =        8
   RHO(1)=    0.500       N(1)  =     2000
   RHO(2)=  100.500       N(2)  =     4000

 ion  position               nearest neighbor table
   1  0.000  0.250  0.190-  30 2.46  53 2.46  54 2.46   4 2.49   2 2.49  28 2.49   6 2.49  25 2.49
                             5 2.49
   2  0.000  0.500  0.190-  31 2.46  54 2.46  55 2.46   3 2.49   1 2.49  25 2.49   7 2.49  26 2.49
                             6 2.49
   3  0.000  0.750  0.190-  32 2.46  55 2.46  56 2.46   4 2.49   2 2.49  26 2.49   8 2.49  27 2.49
                             7 2.49
   4  0.000  1.000  0.190-  29 2.46  56 2.46  53 2.46   3 2.49   1 2.49  27 2.49   5 2.49  28 2.49
                             8 2.49
   5  0.143  0.250  0.190-  34 2.46  29 2.46  30 2.46   8 2.49   6 2.49  10 2.49   4 2.49   9 2.49
                             1 2.49
   6  0.143  0.500  0.190-  35 2.46  30 2.46  31 2.46   7 2.49   5 2.49  11 2.49   1 2.49  10 2.49
                             2 2.49
   7  0.143  0.750  0.190-  36 2.46  31 2.46  32 2.46   8 2.49   6 2.49  12 2.49   2 2.49  11 2.49
                             3 2.49
   8  0.143  1.000  0.190-  33 2.46  32 2.46  29 2.46   7 2.49   5 2.49   9 2.49   3 2.49  12 2.49
                             4 2.49
   9  0.286  0.250  0.190-  38 2.46  33 2.46  34 2.46  12 2.49  10 2.49   8 2.49  14 2.49   5 2.49
                            13 2.49
  10  0.286  0.500  0.190-  85 2.18  86 2.38  39 2.46  34 2.46  35 2.46  11 2.49   9 2.49   5 2.49
                            15 2.49   6 2.49  14 2.49
  11  0.286  0.750  0.190-  89 2.05  88 2.30  40 2.46  35 2.46  36 2.46  12 2.49  10 2.49   6 2.49
                            16 2.49   7 2.49  15 2.49
  12  0.286  1.000  0.190-  37 2.46  36 2.46  33 2.46  11 2.49   9 2.49   7 2.49  13 2.49   8 2.49
                            16 2.49
  13  0.429  0.250  0.190-  42 2.46  37 2.46  38 2.46  16 2.49  14 2.49  18 2.49  12 2.49   9 2.49
                            17 2.49
  14  0.429  0.500  0.190-  43 2.46  38 2.46  39 2.46  15 2.49  13 2.49  19 2.49   9 2.49  10 2.49
                            18 2.49  86 2.52
  15  0.429  0.750  0.190-  87 2.00  88 2.42  44 2.46  39 2.46  40 2.46  86 2.47  14 2.49  16 2.49
                            10 2.49  20 2.49  19 2.49  11 2.49
  16  0.429  1.000  0.190-  88 2.38  41 2.46  40 2.46  37 2.46  13 2.49  15 2.49  11 2.49  17 2.49
                            12 2.49  20 2.49
  17  0.571  0.250  0.190-  46 2.46  41 2.46  42 2.46  20 2.49  18 2.49  22 2.49  16 2.49  21 2.49
                            13 2.49
  18  0.571  0.500  0.190-  47 2.46  42 2.46  43 2.46  19 2.49  17 2.49  23 2.49  13 2.49  22 2.49
                            14 2.49
  19  0.571  0.750  0.190-  48 2.46  43 2.46  44 2.46  20 2.49  18 2.49  24 2.49  14 2.49  23 2.49
                            15 2.49
  20  0.571  1.000  0.190- 111 2.15  45 2.46  44 2.46  41 2.46  17 2.49  19 2.49  21 2.49  15 2.49
                            24 2.49  16 2.49
  21  0.714  0.250  0.190-  50 2.46  45 2.46  46 2.46  24 2.49  22 2.49  20 2.49  26 2.49  17 2.49
                            25 2.49
  22  0.714  0.500  0.190-  51 2.46  46 2.46  47 2.46  23 2.49  21 2.49  17 2.49  27 2.49  18 2.49
                            26 2.49
  23  0.714  0.750  0.190-  52 2.46  47 2.46  48 2.46  24 2.49  22 2.49  18 2.49  28 2.49  19 2.49
                            27 2.49
  24  0.714  1.000  0.190-  49 2.46  48 2.46  45 2.46  23 2.49  21 2.49  19 2.49  25 2.49  20 2.49
                            28 2.49
  25  0.857  0.250  0.190-  54 2.46  49 2.46  50 2.46  28 2.49  26 2.49   2 2.49  24 2.49   1 2.49
                            21 2.49
  26  0.857  0.500  0.190-  55 2.46  50 2.46  51 2.46  27 2.49  25 2.49   3 2.49  21 2.49   2 2.49
                            22 2.49
  27  0.857  0.750  0.190-  56 2.46  51 2.46  52 2.46  28 2.49  26 2.49   4 2.49  22 2.49   3 2.49
                            23 2.49
  28  0.857  1.000  0.190-  53 2.46  52 2.46  49 2.46  27 2.49  25 2.49   1 2.49  23 2.49   4 2.49
                            24 2.49
  29  0.095  0.083  0.095-   4 2.46   5 2.46   8 2.46  60 2.46  57 2.46  61 2.46  32 2.49  30 2.49
                            34 2.49  56 2.49  33 2.49  53 2.49
  30  0.095  0.333  0.095-   1 2.46   6 2.46   5 2.46  57 2.46  58 2.46  62 2.46  31 2.49  29 2.49
                            35 2.49  53 2.49  34 2.49  54 2.49
  31  0.095  0.583  0.095-   2 2.46   7 2.46   6 2.46  58 2.46  59 2.46  63 2.46  32 2.49  30 2.49
                            36 2.49  54 2.49  35 2.49  55 2.49
  32  0.095  0.833  0.095-   3 2.46   8 2.46   7 2.46  59 2.46  60 2.46  64 2.46  31 2.49  29 2.49
                            33 2.49  55 2.49  36 2.49  56 2.49
  33  0.238  0.083  0.095-   8 2.46   9 2.46  12 2.46  64 2.46  61 2.46  65 2.46  36 2.49  34 2.49
                            32 2.49  38 2.49  29 2.49  37 2.49
  34  0.238  0.333  0.095-   5 2.46  10 2.46   9 2.46  61 2.46  62 2.46  66 2.46  35 2.49  33 2.49
                            29 2.49  39 2.49  30 2.49  38 2.49
  35  0.238  0.583  0.095-   6 2.46  11 2.46  10 2.46  62 2.46  63 2.46  67 2.46  36 2.49  34 2.49
                            30 2.49  40 2.49  31 2.49  39 2.49
  36  0.238  0.833  0.095-   7 2.46  12 2.46  11 2.46  63 2.46  64 2.46  68 2.46  35 2.49  33 2.49
                            31 2.49  37 2.49  32 2.49  40 2.49
  37  0.381  0.083  0.095-  12 2.46  13 2.46  16 2.46  68 2.46  65 2.46  69 2.46  40 2.49  38 2.49
                            42 2.49  36 2.49  33 2.49  41 2.49
  38  0.381  0.333  0.095-   9 2.46  14 2.46  13 2.46  65 2.46  66 2.46  70 2.46  39 2.49  37 2.49
                            43 2.49  33 2.49  34 2.49  42 2.49
  39  0.381  0.583  0.095-  10 2.46  15 2.46  14 2.46  66 2.46  67 2.46  71 2.46  40 2.49  38 2.49
                            44 2.49  34 2.49  35 2.49  43 2.49
  40  0.381  0.833  0.095-  11 2.46  16 2.46  15 2.46  67 2.46  68 2.46  72 2.46  39 2.49  37 2.49
                            41 2.49  35 2.49  44 2.49  36 2.49
  41  0.524  0.083  0.095-  16 2.46  17 2.46  20 2.46  72 2.46  69 2.46  73 2.46  44 2.49  42 2.49
                            46 2.49  40 2.49  45 2.49  37 2.49
  42  0.524  0.333  0.095-  13 2.46  18 2.46  17 2.46  69 2.46  70 2.46  74 2.46  43 2.49  41 2.49
                            47 2.49  37 2.49  46 2.49  38 2.49
  43  0.524  0.583  0.095-  14 2.46  19 2.46  18 2.46  70 2.46  71 2.46  75 2.46  44 2.49  42 2.49
                            48 2.49  38 2.49  47 2.49  39 2.49
  44  0.524  0.833  0.095-  15 2.46  20 2.46  19 2.46  71 2.46  72 2.46  76 2.46  43 2.49  41 2.49
                            45 2.49  39 2.49  48 2.49  40 2.49
  45  0.667  0.083  0.095-  20 2.46  21 2.46  24 2.46  76 2.46  73 2.46  77 2.46  48 2.49  46 2.49
                            44 2.49  50 2.49  41 2.49  49 2.49
  46  0.667  0.333  0.095-  17 2.46  22 2.46  21 2.46  73 2.46  74 2.46  78 2.46  47 2.49  45 2.49
                            41 2.49  51 2.49  42 2.49  50 2.49
  47  0.667  0.583  0.095-  18 2.46  23 2.46  22 2.46  74 2.46  75 2.46  79 2.46  48 2.49  46 2.49
                            42 2.49  52 2.49  43 2.49  51 2.49
  48  0.667  0.833  0.095-  19 2.46  24 2.46  23 2.46  75 2.46  76 2.46  80 2.46  47 2.49  45 2.49
                            43 2.49  49 2.49  44 2.49  52 2.49
  49  0.810  0.083  0.095-  24 2.46  25 2.46  28 2.46  80 2.46  77 2.46  81 2.46  52 2.49  50 2.49
                            54 2.49  48 2.49  53 2.49  45 2.49
  50  0.810  0.333  0.095-  21 2.46  26 2.46  25 2.46  77 2.46  78 2.46  82 2.46  51 2.49  49 2.49
                            55 2.49  45 2.49  54 2.49  46 2.49
  51  0.810  0.583  0.095-  22 2.46  27 2.46  26 2.46  78 2.46  79 2.46  83 2.46  52 2.49  50 2.49
                            56 2.49  46 2.49  55 2.49  47 2.49
  52  0.810  0.833  0.095-  23 2.46  28 2.46  27 2.46  79 2.46  80 2.46  84 2.46  51 2.49  49 2.49
                            53 2.49  47 2.49  56 2.49  48 2.49
  53  0.952  0.083  0.095-  28 2.46   1 2.46   4 2.46  84 2.46  81 2.46  57 2.46  56 2.49  54 2.49
                            52 2.49  30 2.49  49 2.49  29 2.49
  54  0.952  0.333  0.095-  25 2.46   2 2.46   1 2.46  81 2.46  82 2.46  58 2.46  55 2.49  53 2.49
                            49 2.49  31 2.49  50 2.49  30 2.49
  55  0.952  0.583  0.095-  26 2.46   3 2.46   2 2.46  82 2.46  83 2.46  59 2.46  56 2.49  54 2.49
                            50 2.49  32 2.49  51 2.49  31 2.49
  56  0.952  0.833  0.095-  27 2.46   4 2.46   3 2.46  83 2.46  84 2.46  60 2.46  55 2.49  53 2.49
                            51 2.49  29 2.49  52 2.49  32 2.49
  57  0.048  0.167  0.000-  30 2.46  29 2.46  53 2.46  58 2.49  60 2.49  62 2.49  84 2.49  81 2.49
                            61 2.49
  58  0.048  0.417  0.000-  31 2.46  30 2.46  54 2.46  57 2.49  59 2.49  63 2.49  81 2.49  62 2.49
                            82 2.49
[...]
   0.130E+02 0.250E+02 0.199E+03   -.151E+02 -.259E+02 -.199E+03   -.415E-02 0.134E-01 -.233E-01   0.208E+01 0.851E+00 0.910E-01
   0.292E+02 0.882E+01 0.204E+03   -.322E+02 -.893E+01 -.204E+03   0.226E-01 0.109E-01 0.831E-02   0.295E+01 0.109E+00 0.388E+00
   0.284E+02 -.797E+00 0.183E+03   -.333E+02 -.225E+01 -.186E+03   -.467E-01 -.167E-02 0.293E-01   0.498E+01 0.304E+01 0.250E+01
   0.128E+02 0.151E+02 0.178E+03   -.167E+02 -.191E+02 -.181E+03   -.207E-01 -.255E-01 -.171E-02   0.392E+01 0.404E+01 0.249E+01
   0.214E+02 0.210E+02 0.256E+04   -.216E+02 -.203E+02 -.256E+04   -.144E-01 -.463E-01 -.128E+01   0.213E+00 -.664E+00 0.202E+01
   0.278E+02 0.146E+02 0.256E+04   -.284E+02 -.135E+02 -.256E+04   -.405E-01 -.216E-01 -.132E+01   0.668E+00 -.104E+01 0.219E+01
   0.266E+02 0.679E+01 0.255E+04   -.287E+02 -.872E+01 -.255E+04   -.137E+00 0.280E-01 -.128E+01   0.215E+01 0.191E+01 0.279E+01
   0.203E+02 0.131E+02 0.255E+04   -.219E+02 -.155E+02 -.255E+04   0.218E-01 -.196E-01 -.126E+01   0.156E+01 0.244E+01 0.301E+01
[...]
   -.413E+02 -.219E+01 -.293E+03   0.441E+02 0.514E+01 0.296E+03   -.272E+01 -.296E+01 -.383E+01   -.125E+00 -.549E-01 -.919E-01
   0.135E+02 0.735E+02 -.278E+03   -.151E+02 -.785E+02 0.281E+03   0.169E+01 0.510E+01 -.223E+01   -.472E-01 0.617E-03 -.136E+00
   -.457E+02 0.378E+02 -.256E+03   0.492E+02 -.388E+02 0.252E+03   -.331E+01 0.103E+01 0.421E+01   -.199E+00 -.856E-01 -.181E+00
   0.270E+02 -.237E+02 -.320E+03   -.290E+02 0.248E+02 0.325E+03   0.209E+01 -.109E+01 -.494E+01   -.572E-01 -.431E-01 -.798E-01
   -.166E+02 0.635E+02 -.289E+03   0.157E+02 -.682E+02 0.292E+03   0.937E+00 0.461E+01 -.271E+01   -.104E+00 0.510E-01 0.915E-02
   -.593E+02 -.752E+02 -.295E+03   0.658E+02 0.779E+02 0.297E+03   -.651E+01 -.264E+01 -.234E+01   -.308E-01 -.104E+00 0.292E-01
   -.292E+01 -.103E+02 -.279E+03   0.124E+01 0.114E+02 0.284E+03   0.172E+01 -.110E+01 -.526E+01   -.512E-02 0.561E-02 -.199E-01
   -.770E+02 0.395E+02 -.253E+03   0.817E+02 -.426E+02 0.253E+03   -.476E+01 0.305E+01 -.386E+00   -.286E-01 0.761E-01 0.602E-01
   -.805E+02 -.115E+02 -.216E+03   0.848E+02 0.108E+02 0.210E+03   -.433E+01 0.698E+00 0.633E+01   0.341E-01 0.402E-01 -.520E-02
   -.517E+02 0.350E+02 -.249E+03   0.539E+02 -.367E+02 0.245E+03   -.204E+01 0.158E+01 0.431E+01   -.155E+00 0.902E-01 0.963E-01
   0.372E+03 0.668E+02 -.176E+04   -.413E+03 -.460E+02 0.178E+04   0.408E+02 -.211E+02 -.158E+02   0.179E+00 0.271E+00 -.104E+01
   0.144E+03 0.270E+03 -.172E+04   -.180E+03 -.291E+03 0.172E+04   0.355E+02 0.208E+02 -.647E+01   -.251E+00 -.128E+00 -.853E+00
   0.114E+02 -.310E+03 -.167E+04   -.362E+02 0.331E+03 0.166E+04   0.254E+02 -.196E+02 0.189E+02   -.587E+00 -.687E+00 0.583E-01
   -.208E+03 -.251E+03 -.159E+04   0.199E+03 0.288E+03 0.161E+04   0.890E+01 -.370E+02 -.179E+02   0.662E-01 -.309E-01 0.983E-01
   -.714E+02 0.468E+02 -.631E+02   -.625E-12 -.148E-11 -.221E-10   0.777E+02 -.460E+02 -.275E+02   -.628E+01 -.805E+00 0.882E+02

 POSITION                                       TOTAL-FORCE (eV/Angst)
     -1.24362      2.15447      3.99899        -0.005597     -0.005262     -0.110887
     -2.48762      4.30914      3.99899        -0.017123     -0.030681     -0.126454
     -3.73162      6.46381      3.99899         0.018435     -0.008980     -0.185586
     -4.97562      8.61848      3.99899        -0.006029      0.031399     -0.140537
      1.24438      2.15447      3.99899        -0.062896     -0.177197     -0.140449
      0.00038      4.30914      3.99899        -0.134991     -0.110557     -0.082378
     -1.24362      6.46381      3.99899        -0.207857      0.040768     -0.229424
     -2.48762      8.61848      3.99899         0.003481      0.011632     -0.123336
      3.73238      2.15447      3.99899         0.135207     -0.276707     -0.307699
      2.48838      4.30914      3.99899         0.132166     -0.441769      0.865220
      1.24438      6.46381      3.99899        -0.450050      0.357952      0.514621
      0.00038      8.61848      3.99899        -0.226914      0.247950     -0.243566
      6.22038      2.15447      3.99899         0.016657      0.038002     -0.048822
      4.97638      4.30914      3.99899         0.055776     -0.091382      0.077378
      3.73238      6.46381      3.99899         0.367607      0.059238      0.338653
      2.48838      8.61848      3.99899        -0.186351      0.082829      0.051669
      8.70838      2.15447      3.99899        -0.059695      0.166286     -0.185930
      7.46438      4.30914      3.99899         0.035829     -0.029548     -0.092239
      6.22038      6.46381      3.99899         0.317674     -0.081919     -0.332434
      4.97638      8.61848      3.99899         0.165420      0.088655      0.460660
     11.19638      2.15447      3.99899         0.060039      0.110587     -0.176990
      9.95238      4.30914      3.99899        -0.027008     -0.014903     -0.111134
      8.70838      6.46381      3.99899         0.005468      0.007525     -0.055331
      7.46438      8.61848      3.99899         0.168062      0.030130     -0.232933
     13.68438      2.15447      3.99899        -0.023018     -0.029870     -0.057588
     12.44038      4.30914      3.99899        -0.015801     -0.027951     -0.131032
     11.19638      6.46381      3.99899        -0.022378      0.002403     -0.149168
      9.95238      8.61848      3.99899        -0.051829      0.002084     -0.042905
      1.24386      0.71806      2.00182        -0.015643      0.028116     -0.024629
     -0.00014      2.87273      2.00182         0.020131      0.044868      0.018561
     -1.24414      5.02740      2.00182         0.036702     -0.007257     -0.027752
     -2.48814      7.18207      2.00182         0.019953     -0.033725     -0.020437
      3.73186      0.71806      2.00182         0.016506      0.014457     -0.044346
      2.48786      2.87273      2.00182        -0.024633      0.116290     -0.048067
      1.24386      5.02740      2.00182         0.084118      0.046241     -0.097415
     -0.00014      7.18207      2.00182         0.069672     -0.072457     -0.100040
      6.21986      0.71806      2.00182         0.081186     -0.016616     -0.039382
      4.97586      2.87273      2.00182        -0.006219      0.080972     -0.034070
      3.73186      5.02740      2.00182        -0.050598      0.048185     -0.205943
      2.48786      7.18207      2.00182         0.034551     -0.093322     -0.240574
      8.70786      0.71806      2.00182         0.048162     -0.027440      0.014976
      7.46386      2.87273      2.00182         0.015474      0.012254     -0.045725
      6.21986      5.02740      2.00182        -0.037020     -0.002852     -0.023140
      4.97586      7.18207      2.00182        -0.043885     -0.002783     -0.131887
     11.19586      0.71806      2.00182        -0.084551     -0.020270     -0.008612
      9.95186      2.87273      2.00182         0.006067     -0.008065     -0.036594
      8.70786      5.02740      2.00182         0.017909     -0.002479     -0.012695
      7.46386      7.18207      2.00182        -0.047046     -0.025125     -0.060232
     13.68386      0.71806      2.00182        -0.023827     -0.003421     -0.030696
     12.43986      2.87273      2.00182        -0.024489      0.007818     -0.062240
     11.19586      5.02740      2.00182        -0.022389     -0.014752     -0.030024
      9.95186      7.18207      2.00182        -0.004508     -0.048441     -0.061014
     16.17186      0.71806      2.00182        -0.003415     -0.001880     -0.020914
     14.92786      2.87273      2.00182         0.005925      0.013885     -0.024414
     13.68386      5.02740      2.00182        -0.032660     -0.006023     -0.030726
     12.43986      7.18207      2.00182        -0.021642     -0.021181     -0.030943
     -0.00001      1.43645      0.00000         0.006646      0.018018      0.132486
     -1.24401      3.59113      0.00000         0.007025      0.012995      0.086272
     -2.48801      5.74580      0.00000        -0.015584      0.009779      0.098191
     -3.73201      7.90047      0.00000        -0.008485     -0.016830      0.120688
[...]
      0.17759      3.52780      6.91259         0.039738      0.069022     -0.032656
      3.97387      2.98978      7.91245        -0.025016     -0.008100     -0.017668
      3.11216      1.43474      7.58233         0.019045      0.089497     -0.010366
      4.10283      2.19617      6.28791         0.007586      0.006128     -0.010926
      4.31273      7.41461      7.77784         0.015177     -0.001490      0.004715
      5.83940      5.50864      7.53408        -0.021835      0.026319      0.014818
     10.80266      0.20056      6.47572        -0.016447     -0.036440     -0.018921
      6.75304      7.43883      8.76799         0.001459     -0.002952     -0.006923
      8.02745      6.62882      7.81368        -0.074609      0.051652      0.021848
      7.93310      8.39212      6.35120        -0.021175     -0.021132     -0.027568
      6.46694      6.11777      5.99217        -0.007008     -0.003211      0.017155
      0.03275      4.49720      6.84946        -0.033864     -0.058492      0.021496
      2.24004      3.05992      6.74524         0.029937     -0.109976      0.094032
      4.94056      8.49118      6.14090         0.020122      0.010108      0.063025
      7.38502      8.51739      7.16750         0.003505     -0.036190      0.040851
    total drift:                                0.002077      0.056460     -2.426536

  FREE ENERGIE OF THE ION-ELECTRON SYSTEM (eV)
  free  energy   TOTEN  =      -593.99539543 eV

  energy  without entropy=     -593.93201934  energy(sigma->0) =     -593.96370739

[...]

  free energy =  -0.586328067741E+03  energy without entropy=  -0.586263481831E+03

[...]

 d Force = 0.4741267E-01[ 0.416E-01, 0.532E-01]  d Energy = 0.5911065E+01-0.586E+01
 d Force =-0.2576229E+02[-0.258E+02,-0.257E+02]  d Ewald  =-0.2576231E+02 0.178E-04

 Steepest descent step on ions:
 trial-energy change:   -5.911065  1 .order   -0.047413   -0.053236   -0.041589
  (g-gl).g = 0.532E-01      g.g   = 0.532E-01  gl.gl    = 0.000E+00
 g(Force)  = 0.532E-01   g(Stress)= 0.000E+00 ortho     = 0.000E+00
 gamma     =   0.00000
 trial     =   1.00000
 opt step  =   4.00000  (harmonic =   4.57099) maximal distance =0.05008861
 next E    =  -594.117066   (d E  =  -0.12167)

[...]

 d Force =-0.2126823E-01[-0.155E+00, 0.113E+00]  d Energy =-0.1999558E-01-0.127E-02
 d Force =-0.1557773E+03[-0.156E+03,-0.155E+03]  d Ewald  =-0.1557789E+03 0.155E-02

[...]

 d Force = 0.4512249E-01[ 0.253E-03, 0.900E-01]  d Energy = 0.4397591E-01 0.115E-02
 d Force = 0.9037883E+02[ 0.902E+02, 0.906E+02]  d Ewald  = 0.9037904E+02-0.210E-03

[...]

 Conjugate gradient step on ions:
 trial-energy change:   -0.034390  1 .order   -0.033593   -0.045533   -0.021653
  (g-gl).g = 0.777E-01      g.g   = 0.776E-01  gl.gl    = 0.532E-01
 g(Force)  = 0.776E-01   g(Stress)= 0.000E+00 ortho     =-0.728E-04
 gamma     =   1.45890
 trial     =   0.58762
 opt step  =   0.98635  (harmonic =   1.12043) maximal distance =0.02210902
 next E    =  -600.062847   (d E  =  -0.04199)

[...]

 Conjugate gradient step on ions:
 trial-energy change:   -0.009734  1 .order   -0.009712   -0.010765   -0.008658
  (g-gl).g = 0.151E-01      g.g   = 0.154E-01  gl.gl    = 0.776E-01
 g(Force)  = 0.154E-01   g(Stress)= 0.000E+00 ortho     = 0.302E-03
 gamma     =   0.19502
 trial     =   0.69421
 opt step  =   2.77683  (harmonic =   3.54774) maximal distance =0.01796533
 next E    =  -600.092561   (d E  =  -0.02751)

[...]

 d Force =-0.3811948E-02[-0.196E-01, 0.120E-01]  d Energy =-0.4005945E-02 0.194E-03
 d Force =-0.7991504E+02[-0.797E+02,-0.802E+02]  d Ewald  =-0.7991472E+02-0.320E-03

[...]

 d Force = 0.2072075E-02[-0.154E-03, 0.430E-02]  d Energy = 0.2034502E-02 0.376E-04
 d Force =-0.2952001E+02[-0.295E+02,-0.295E+02]  d Ewald  =-0.2952001E+02 0.275E-05

[...]

 d Force = 0.9475100E-04[-0.153E-04, 0.205E-03]  d Energy = 0.7029900E-04 0.245E-04
 d Force = 0.1148957E+02[ 0.115E+02, 0.115E+02]  d Ewald  = 0.1148957E+02 0.323E-06

[...]

 d Force = 0.3536202E-04[ 0.282E-04, 0.425E-04]  d Energy =-0.6823907E-06 0.360E-04
 d Force =-0.4271656E+00[-0.427E+00,-0.427E+00]  d Ewald  =-0.4271656E+00 0.248E-07

[...]

 d Force = 0.1788174E-04[ 0.142E-04, 0.215E-04]  d Energy =-0.4520926E-04 0.631E-04
 d Force =-0.4131241E+00[-0.413E+00,-0.413E+00]  d Ewald  =-0.4131241E+00 0.128E-08

[...]

 d Force = 0.1759078E-04[-0.171E-05, 0.369E-04]  d Energy = 0.7220384E-05 0.104E-04
 d Force =-0.3389986E+00[-0.339E+00,-0.339E+00]  d Ewald  =-0.3389990E+00 0.405E-06

[...]

 d Force = 0.5532950E-04[-0.709E-05, 0.118E-03]  d Energy = 0.5156038E-04 0.377E-05
 d Force = 0.5746374E-02[ 0.543E-02, 0.606E-02]  d Ewald  = 0.5746713E-02-0.338E-06

[...]

 Conjugate gradient step on ions:
 trial-energy change:   -0.000058  1 .order   -0.000119   -0.000145   -0.000092
  (g-gl).g = 0.175E-03      g.g   = 0.181E-03  gl.gl    = 0.129E-03
 g(Force)  = 0.181E-03   g(Stress)= 0.000E+00 ortho     =-0.418E-05
 gamma     =   1.36412
 trial     =   0.82938
 opt step  =   2.25593  (harmonic =   2.25593) maximal distance =0.00330709
 next E    =  -600.144291   (d E  =  -0.00020)

[...]

 d Force = 0.8091936E-04[ 0.371E-05, 0.158E-03]  d Energy = 0.5467966E-04 0.262E-04
 d Force = 0.4342609E+00[ 0.434E+00, 0.434E+00]  d Ewald  = 0.4342617E+00-0.774E-06

[...]

 eigenvalue-minimisations  :  8386
 total energy-change (2. order) :-0.2878727E-04  (-0.2791022E-05)
 number of electron     918.0002501 magnetization      58.1249345
 augmentation part      522.7244129 magnetization      54.3315569

[...]

 eigenvalues of (default mixing * dielectric matrix)
  average eigenvalue GAMMA=   0.2490
  0.7486  0.1187  0.0558  0.0728

[...]

--------------------------------------- Iteration     82(   6)  ---------------------------------------

 eigenvalue-minimisations  :  7398
 total energy-change (2. order) : 0.9068463E-05  (-0.1859021E-05)
 number of electron     918.0002501 magnetization      58.1249345
 augmentation part      522.7244129 magnetization      54.3315569

 DIPCOR: dipole corrections for dipol
 direction  3 min pos   149,
 dipolmoment           0.000000      0.000000     -1.041174 electrons x Angstroem
 Tr[quadrupol]    -31548.138876

 energy correction for charged system         0.000000 eV
 dipol+quadrupol energy correction           -0.031146 eV
 added-field ion interaction        -54.844601 eV  (added to PSCEN)

  free energy =  -0.591933338465E+03  energy without entropy=  -0.591865275018E+03

------------------------ aborting loop because EDIFF is reached ----------------------------------------

  Number of pair interactions contributing to vdW energy:  524422
  Edisp (eV):   -8.21100

  FORCE on cell =-STRESS in cart. coord.  units (eV):
  Direction    XX          YY          ZZ          XY          YZ          ZX
  Alpha Z  1338.31872  1338.31872  1338.31872
  Ewald  379699.24627379917.49600************   183.01892  -620.69361   308.69040
  Hartree402933.38671403093.13740************    96.97016  -383.09109   312.22126
  E(xc)   -4922.02935 -4921.83812 -4936.07636     0.21646    -0.86428    -0.28960
  Local  ************************799832.08741  -268.03821   970.89772  -642.10685
  n-local  -866.30991  -857.48006  -922.33252    -1.07921    -4.16973    -0.71092
  augment 14796.94559 14793.91647 14881.83827    -3.57884     2.11238     3.14900
  Kinetic  7781.69143  7748.11234  7919.30109    -9.14905    35.88172    18.67407
  Fock        0.00000     0.00000     0.00000     0.00000     0.00000     0.00000
  vdW       -10.56256   -10.49483    -7.81541    -0.08685    -0.01664    -0.09133
  Total     -44.61499   -43.34669    -2.93629    -1.72663     0.05647    -0.46397
  in kB     -22.57547   -21.93371    -1.48578    -0.87369     0.02858    -0.23477

  FREE ENERGIE OF THE ION-ELECTRON SYSTEM (eV)
  free  energy   TOTEN  =      -600.14433951 eV

  energy  without entropy=     -600.07627606  energy(sigma->0) =     -600.11030778

 d Force = 0.1198007E-03[ 0.788E-04, 0.161E-03]  d Energy = 0.1332246E-03-0.134E-04
 d Force =-0.5663734E+00[-0.566E+00,-0.566E+00]  d Ewald  =-0.5663732E+00-0.157E-06

 Conjugate gradient step on ions:
 trial-energy change:   -0.000133  1 .order   -0.000120   -0.000161   -0.000079
  (g-gl).g = 0.106E-03      g.g   = 0.143E-03  gl.gl    = 0.181E-03
 g(Force)  = 0.143E-03   g(Stress)= 0.000E+00 ortho     = 0.260E-05
 gamma     =   0.58611
 trial     =   1.11469
 opt step  =   2.18583  (harmonic =   2.18583) maximal distance =0.00198524
 next E    =  -600.144364   (d E  =  -0.00016)

 reached required accuracy - stopping structural energy minimisation