 vasp.5.4.4.18Apr17-6-g9f103f2a35 (build Jun 30 2017 19:19:18) complex

 executed on         MareNostrum4 date 2022.04.12  10:59:02

 INCAR:
 POTCAR:    PAW_PBE Ag 02Apr2005
 POTCAR:    PAW_PBE O 08Apr2002
 POTCAR:    PAW_PBE C 08Apr2002
 POTCAR:    PAW_PBE N 08Apr2002
 POTCAR:    PAW_PBE H 15Jun2001

 POTCAR:    PAW_PBE Ag 02Apr2005

[...]

 POTCAR:    PAW_PBE N 08Apr2002

 POTCAR:    PAW_PBE H 15Jun2001

 Optimization of the real space projectors (new method)

 maximal supplied QI-value         = 15.12
 optimisation between [QCUT,QGAM] = [ 10.73, 21.62] = [ 32.26,130.87] Ry
 Optimized for a Real-space Cutoff    1.42 Angstroem

   l    n(q)    QCUT    max X(q) W(low)/X(q) W(high)/X(q)  e(spline)
   2      8    10.734    53.897    0.46E-03    0.48E-03    0.17E-06
   2      8    10.734    52.416    0.47E-03    0.50E-03    0.17E-06
   0      9    10.734   122.045    0.16E-03    0.13E-03    0.44E-07
   0      9    10.734    73.629    0.16E-03    0.13E-03    0.43E-07
   1      9    10.734    15.255    0.66E-04    0.32E-03    0.15E-06
   1      9    10.734     9.562    0.55E-04    0.26E-03    0.12E-06
 Optimization of the real space projectors (new method)

[...]

   l    n(q)    QCUT    max X(q) W(low)/X(q) W(high)/X(q)  e(spline)
   0      8    10.807    79.467    0.34E-03    0.68E-03    0.21E-06
   0      8    10.807    66.151    0.34E-03    0.67E-03    0.21E-06
   1      7    10.807    14.030    0.45E-03    0.13E-02    0.11E-05
   1      7    10.807     9.831    0.48E-03    0.13E-02    0.11E-05
 Optimization of the real space projectors (new method)

 maximal supplied QI-value         = 34.20
 optimisation between [QCUT,QGAM] = [ 10.60, 21.55] = [ 31.48,130.03] Ry
 Optimized for a Real-space Cutoff    1.23 Angstroem

   l    n(q)    QCUT    max X(q) W(low)/X(q) W(high)/X(q)  e(spline)
   0      8    10.603    19.460    0.37E-03    0.59E-03    0.23E-06
   0      8    10.603    12.209    0.35E-03    0.56E-03    0.22E-06
   1      7    10.603     4.655    0.70E-04    0.28E-03    0.29E-06
  PAW_PBE Ag 02Apr2005                  :
  PAW_PBE O 08Apr2002                   :
  PAW_PBE C 08Apr2002                   :
  PAW_PBE N 08Apr2002                   :
  PAW_PBE H 15Jun2001                   :

 POSCAR: Ag  O  C  N  H
  positions in direct lattice
  velocities in cartesian coordinates
 exchange correlation table for  LEXCH =        8
   RHO(1)=    0.500       N(1)  =     2000
   RHO(2)=  100.500       N(2)  =     4000

 ion  position               nearest neighbor table
   1  0.000  0.000  0.000-  28 2.89   4 2.89   3 2.89  35 2.89  10 2.89   2 2.89  70 2.89  40 2.89
                            47 2.89
   2  1.000  0.167  0.000-  27 2.89   8 2.89   5 2.89  28 2.89   3 2.89   1 2.89  39 2.89  61 2.89
                            40 2.89
   3  0.167  0.167  0.000-  14 2.89  17 2.89   8 2.89   2 2.89   1 2.89   4 2.89  38 2.89  40 2.89
                            37 2.89
   4  0.167  0.000  0.000-  13 2.89  14 2.89   1 2.89  11 2.89  10 2.89   3 2.89  37 2.89  47 2.89
                            46 2.89
   5  0.000  0.333  0.000-   8 2.89  27 2.89   2 2.89  32 2.89   6 2.89   7 2.89  62 2.89  44 2.89
                            39 2.89
   6  0.000  0.500  0.000-  12 2.89   7 2.89   9 2.89  31 2.89   5 2.89  32 2.89  43 2.89  65 2.89
                            44 2.89
   7  0.167  0.500  0.000-   6 2.89  18 2.89  21 2.89  12 2.89   5 2.89   8 2.89  42 2.89  44 2.89
                            41 2.89
   8  0.167  0.333  0.000-   5 2.89   2 2.89   3 2.89  17 2.89  18 2.89   7 2.89  39 2.89  41 2.89
                            38 2.89
   9  0.000  0.667  0.000-  12 2.89  36 2.89  31 2.89  11 2.89   6 2.89  10 2.89  66 2.89  48 2.89
                            43 2.89
  10  1.000  0.833  0.000-  36 2.89  35 2.89   9 2.89  11 2.89   1 2.89   4 2.89  69 2.89  47 2.89
                            48 2.89
  11  0.167  0.833  0.000-  22 2.89   9 2.89  12 2.89  10 2.89   4 2.89  13 2.89  46 2.89  48 2.89
                            45 2.89
  12  0.167  0.667  0.000-   6 2.89   9 2.89  22 2.89  11 2.89   7 2.89  21 2.89  43 2.89  45 2.89
                            42 2.89
  13  0.333  0.000  0.000-   4 2.89  16 2.89  15 2.89  22 2.89  11 2.89  14 2.89  46 2.89  52 2.89
                            59 2.89
  14  0.333  0.167  0.000-   3 2.89  17 2.89   4 2.89  20 2.89  15 2.89  13 2.89  51 2.89  37 2.89
                            52 2.89
  15  0.500  0.167  0.000-  26 2.89  20 2.89  29 2.89  14 2.89  13 2.89  16 2.89  50 2.89  52 2.89
                            49 2.89
  16  0.500  0.000  0.000-  25 2.89  26 2.89  13 2.89  23 2.89  22 2.89  15 2.89  49 2.89  59 2.89
                            58 2.89
  17  0.333  0.333  0.000-  14 2.89   3 2.89   8 2.89  20 2.89  19 2.89  18 2.89  38 2.89  56 2.89
                            51 2.89
  18  0.333  0.500  0.000-   7 2.89  21 2.89  24 2.89  19 2.89   8 2.89  17 2.89  55 2.89  41 2.89
                            56 2.89
  19  0.500  0.500  0.000-  30 2.89  24 2.89  33 2.89  18 2.89  17 2.89  20 2.89  54 2.89  56 2.89
                            53 2.89
  20  0.500  0.333  0.000-  29 2.89  15 2.89  30 2.89  14 2.89  17 2.89  19 2.89  53 2.89  51 2.89
                            50 2.89
  21  0.333  0.667  0.000-  18 2.89  23 2.89   7 2.89  22 2.89  12 2.89  24 2.89  42 2.89  60 2.89
                            55 2.89
  22  0.333  0.833  0.000-  11 2.89  12 2.89  21 2.89  23 2.89  13 2.89  16 2.89  45 2.89  59 2.89
                            60 2.89
  23  0.500  0.833  0.000-  34 2.89  21 2.89  24 2.89  22 2.89  25 2.89  16 2.89  58 2.89  60 2.89
                            57 2.89
  24  0.500  0.667  0.000-  34 2.89  33 2.89  19 2.89  23 2.89  18 2.89  21 2.89  57 2.89  55 2.89
                            54 2.89
  25  0.667  0.000  0.000-  16 2.89  28 2.89  23 2.89  27 2.89  34 2.89  26 2.89  58 2.89  64 2.89
                            71 2.89
  26  0.667  0.167  0.000-  15 2.89  32 2.89  29 2.89  16 2.89  27 2.89  25 2.89  63 2.89  49 2.89
                            64 2.89
  27  0.833  0.167  0.000-   2 2.89   5 2.89  32 2.89  26 2.89  25 2.89  28 2.89  62 2.89  64 2.89
                            61 2.89
  28  0.833  0.000  0.000-   1 2.89   2 2.89  25 2.89  35 2.89  34 2.89  27 2.89  61 2.89  71 2.89
                            70 2.89
  29  0.667  0.333  0.000-  20 2.89  32 2.89  15 2.89  26 2.89  31 2.89  30 2.89  50 2.89  68 2.89
                            63 2.89
  30  0.667  0.500  0.000-  19 2.89  33 2.89  20 2.89  36 2.89  31 2.89  29 2.89  67 2.89  53 2.89
                            68 2.89
  31  0.833  0.500  0.000-   9 2.89  36 2.89  30 2.89   6 2.89  32 2.89  29 2.89  66 2.89  68 2.89
                            65 2.89
  32  0.833  0.333  0.000-  29 2.89  26 2.89  27 2.89   5 2.89  31 2.89   6 2.89  63 2.89  65 2.89
                            62 2.89
  33  0.667  0.667  0.000-  24 2.89  19 2.89  30 2.89  35 2.89  34 2.89  36 2.89  54 2.89  72 2.89
                            67 2.89
  34  0.667  0.833  0.000-  24 2.89  23 2.89  33 2.89  35 2.89  25 2.89  28 2.89  57 2.89  71 2.89
                            72 2.89
  35  0.833  0.833  0.000-  10 2.89  33 2.89  36 2.89  34 2.89   1 2.89  28 2.89  70 2.89  72 2.89
                            69 2.89
  36  0.833  0.667  0.000-  10 2.89   9 2.89  31 2.89  35 2.89  30 2.89  33 2.89  69 2.89  67 2.89
                            66 2.89
  37  0.222  0.111  0.107-  76 2.89  52 2.89  51 2.89  38 2.89  40 2.89  46 2.89  47 2.89  14 2.89
                             4 2.89   3 2.89  74 2.91  75 2.91
  38  0.222  0.278  0.107-  51 2.89  37 2.89  56 2.89  40 2.89  39 2.89  41 2.89   3 2.89  17 2.89
                             8 2.89  76 2.90  73 2.90  79 2.91
  39  0.056  0.278  0.107-  62 2.89  61 2.89  40 2.89  38 2.89  44 2.89  41 2.89   2 2.89   8 2.89
                             5 2.89  73 2.90  78 2.91 100 2.92
  40  0.056  0.111  0.107-  61 2.89  39 2.89  70 2.89  38 2.89  37 2.89  47 2.89   1 2.89   3 2.89
                             2 2.89  73 2.90  74 2.91  99 2.92
  41  0.222  0.444  0.107-  56 2.89  55 2.89  42 2.89  44 2.89  39 2.89  38 2.89  18 2.89   8 2.89
                             7 2.89  79 2.90  78 2.91  80 2.92
  42  0.222  0.611  0.107-  55 2.89  41 2.89  60 2.89  44 2.89  43 2.89  45 2.89   7 2.89  21 2.89
                            12 2.89  77 2.91  83 2.91  80 2.92
  43  0.056  0.611  0.107-  66 2.89  65 2.89  44 2.89  42 2.89  48 2.89  45 2.89   6 2.89  12 2.89
                             9 2.89 104 2.90  77 2.90  82 2.91
  44  0.056  0.444  0.107-  65 2.89  43 2.89  62 2.89  42 2.89  41 2.89  39 2.89   5 2.89   7 2.89
                             6 2.89  78 2.90  77 2.91 103 2.91
  45  0.222  0.778  0.107-  60 2.89  59 2.89  46 2.89  48 2.89  42 2.89  43 2.89  22 2.89  12 2.89
                            11 2.89  83 2.90  82 2.91  84 2.92
  46  0.222  0.944  0.107-  59 2.89  45 2.89  52 2.89  48 2.89  47 2.89  37 2.89  13 2.89  11 2.89
                             4 2.89  75 2.91  84 2.92  81 2.92
  47  0.056  0.944  0.107-  70 2.89  69 2.89  48 2.89  46 2.89  40 2.89  37 2.89  10 2.89   4 2.89
                             1 2.89  74 2.90 108 2.92  81 2.92
  48  0.056  0.778  0.107-  69 2.89  47 2.89  66 2.89  46 2.89  45 2.89  43 2.89  11 2.89   9 2.89
                            10 2.89 107 2.90  82 2.91  81 2.92
  49  0.556  0.111  0.107-  64 2.89  63 2.89  50 2.89  52 2.89  58 2.89  59 2.89  26 2.89  16 2.89
                            15 2.89  88 2.91  87 2.92  86 2.92
  50  0.556  0.278  0.107-  63 2.89  49 2.89  68 2.89  52 2.89  51 2.89  53 2.89  15 2.89  29 2.89
                            20 2.89  91 2.90  85 2.91  88 2.92
  51  0.389  0.278  0.107-  38 2.89  37 2.89  52 2.89  50 2.89  53 2.89  56 2.89  14 2.89  20 2.89
                            17 2.89  76 2.90  90 2.90  85 2.91
  52  0.389  0.111  0.107-  37 2.89  51 2.89  46 2.89  50 2.89  49 2.89  59 2.89  13 2.89  15 2.89
                            14 2.89  85 2.91  75 2.91  86 2.92
  53  0.556  0.444  0.107-  68 2.89  67 2.89  54 2.89  56 2.89  51 2.89  50 2.89  30 2.89  20 2.89
                            19 2.89  90 2.90  92 2.90  91 2.91
  54  0.556  0.611  0.107-  67 2.89  53 2.89  72 2.89  56 2.89  55 2.89  57 2.89  19 2.89  33 2.89
                            24 2.89  95 2.90  92 2.90  89 2.91
  55  0.389  0.611  0.107-  42 2.89  41 2.89  56 2.89  54 2.89  60 2.89  57 2.89  18 2.89  24 2.89
                            21 2.89  94 2.90  89 2.90  80 2.92
  56  0.389  0.444  0.107-  41 2.89  55 2.89  38 2.89  54 2.89  53 2.89  51 2.89  17 2.89  19 2.89
                            18 2.89  89 2.90  90 2.91  79 2.91
  57  0.556  0.778  0.107-  72 2.89  71 2.89  58 2.89  60 2.89  54 2.89  55 2.89  34 2.89  24 2.89
                            23 2.89  95 2.89  94 2.90  96 2.91
  58  0.556  0.944  0.107-  71 2.89  57 2.89  64 2.89  60 2.89  59 2.89  49 2.89  25 2.89  23 2.89
                            16 2.89  96 2.91  93 2.91  87 2.92
  59  0.389  0.944  0.107-  46 2.89  45 2.89  60 2.89  58 2.89  52 2.89  49 2.89  22 2.89  16 2.89
                            13 2.89  93 2.91  86 2.92  84 2.92
  60  0.389  0.778  0.107-  94 2.89  45 2.89  59 2.89  42 2.89  58 2.89  57 2.89  55 2.89  23 2.89
[...]
   -.106E+02 0.107E+01 0.259E+04   0.107E+02 -.107E+01 -.259E+04   -.246E-01 -.164E-02 -.161E+01   -.360E-05 -.180E-04 0.492E-02
   -.110E+02 0.150E+01 0.259E+04   0.110E+02 -.151E+01 -.259E+04   -.326E-01 0.104E-01 -.166E+01   0.100E-03 -.617E-04 0.471E-02
   -.510E+01 0.579E+01 0.259E+04   0.511E+01 -.579E+01 -.259E+04   -.194E-02 0.509E-02 -.163E+01   0.188E-03 -.162E-03 0.470E-02
   -.426E+01 -.112E+02 0.259E+04   0.428E+01 0.112E+02 -.259E+04   -.123E-01 -.161E-01 -.160E+01   0.118E-04 0.174E-03 0.491E-02
   0.133E+01 -.147E+02 0.259E+04   -.132E+01 0.147E+02 -.259E+04   -.107E-01 0.101E-02 -.157E+01   0.979E-04 0.257E-03 0.479E-02
   -.403E+01 -.113E+02 0.259E+04   0.402E+01 0.113E+02 -.259E+04   0.754E-02 -.885E-02 -.164E+01   0.112E-04 0.293E-03 0.479E-02
   -.104E+02 -.740E+01 0.259E+04   0.103E+02 0.743E+01 -.259E+04   -.399E-02 -.239E-01 -.162E+01   -.235E-05 0.172E-03 0.476E-02
   0.124E+01 0.237E+02 0.929E+03   -.124E+01 -.237E+02 -.928E+03   -.421E-03 -.186E-01 -.434E+00   -.233E-03 0.101E-03 0.142E-01
   0.167E+02 0.182E+02 0.944E+03   -.167E+02 -.182E+02 -.944E+03   -.927E-02 0.220E-01 -.532E+00   -.114E-03 -.193E-03 0.142E-01
   0.192E+02 0.114E+02 0.923E+03   -.192E+02 -.115E+02 -.923E+03   -.101E-02 0.150E-01 -.434E+00   0.646E-04 -.236E-03 0.142E-01
   0.117E+02 0.125E+02 0.920E+03   -.117E+02 -.125E+02 -.920E+03   0.435E-02 -.420E-02 -.417E+00   -.678E-04 0.478E-04 0.142E-01
   0.243E+02 0.208E+01 0.941E+03   -.243E+02 -.209E+01 -.941E+03   -.486E-02 0.155E-01 -.514E+00   0.207E-04 -.322E-03 0.141E-01
   0.166E+02 -.809E+01 0.926E+03   -.166E+02 0.810E+01 -.926E+03   0.302E-01 -.120E-01 -.427E+00   0.480E-04 -.173E-03 0.141E-01
   -.210E+01 -.554E+01 0.919E+03   0.211E+01 0.552E+01 -.918E+03   -.831E-02 0.227E-01 -.453E+00   0.436E-04 -.985E-04 0.141E-01
   0.120E+02 0.395E+01 0.921E+03   -.120E+02 -.395E+01 -.921E+03   0.542E-02 0.617E-02 -.435E+00   0.108E-03 -.303E-03 0.141E-01
   0.525E+01 -.871E+01 0.913E+03   -.524E+01 0.869E+01 -.912E+03   -.204E-01 0.230E-01 -.461E+00   -.218E-04 0.677E-04 0.141E-01
   -.336E+01 0.824E+01 0.912E+03   0.335E+01 -.821E+01 -.911E+03   0.352E-02 -.424E-01 -.447E+00   -.194E-03 0.235E-03 0.141E-01
   -.262E+01 0.293E+01 0.915E+03   0.262E+01 -.289E+01 -.914E+03   0.400E-02 -.572E-01 -.459E+00   -.179E-03 0.284E-03 0.141E-01
   -.925E+01 -.831E+01 0.915E+03   0.925E+01 0.831E+01 -.915E+03   0.138E-01 0.607E-02 -.453E+00   -.140E-03 0.209E-03 0.141E-01
   -.850E+01 0.106E+02 0.913E+03   0.850E+01 -.106E+02 -.912E+03   0.126E-02 -.117E-02 -.422E+00   0.625E-04 0.346E-04 0.141E-01
   -.182E+02 0.236E+02 0.936E+03   0.182E+02 -.235E+02 -.935E+03   -.221E-02 -.173E-01 -.430E+00   -.739E-04 -.100E-03 0.141E-01
   -.490E+01 0.255E+02 0.951E+03   0.490E+01 -.255E+02 -.950E+03   0.198E-01 0.361E-02 -.523E+00   -.217E-03 -.118E-03 0.142E-01
   -.896E+01 0.216E+02 0.922E+03   0.896E+01 -.217E+02 -.921E+03   -.443E-02 0.197E-01 -.381E+00   -.158E-03 0.690E-04 0.141E-01
   -.134E+02 0.913E+01 0.962E+03   0.135E+02 -.914E+01 -.962E+03   -.113E-01 0.447E-02 -.498E+00   -.128E-03 -.118E-03 0.141E-01
   0.219E+01 -.163E+02 0.961E+03   -.218E+01 0.163E+02 -.960E+03   -.218E-01 -.243E-01 -.494E+00   -.444E-05 0.237E-04 0.141E-01
   0.208E+02 -.137E+02 0.948E+03   -.208E+02 0.137E+02 -.948E+03   -.160E-01 -.124E-01 -.533E+00   0.395E-04 -.118E-03 0.141E-01
   0.120E+02 0.562E+01 0.964E+03   -.121E+02 -.560E+01 -.963E+03   0.196E-01 -.154E-01 -.665E+00   -.106E-03 -.235E-03 0.142E-01
   0.863E+01 -.282E+02 0.937E+03   -.862E+01 0.282E+02 -.936E+03   -.130E-01 0.104E-01 -.461E+00   0.131E-03 0.120E-03 0.141E-01
   0.352E+01 -.135E+02 0.913E+03   -.351E+01 0.135E+02 -.912E+03   -.973E-02 0.653E-02 -.435E+00   0.186E-03 0.140E-03 0.141E-01
   0.121E+01 -.387E+00 0.910E+03   -.120E+01 0.399E+00 -.910E+03   -.151E-01 -.606E-02 -.442E+00   0.244E-05 0.159E-03 0.141E-01
   0.148E+02 -.184E+02 0.925E+03   -.147E+02 0.184E+02 -.924E+03   -.247E-01 0.188E-01 -.474E+00   0.937E-04 0.443E-04 0.141E-01
[...]
   0.103E+02 -.146E+03 -.105E+04   -.119E+02 0.147E+03 0.105E+04   0.167E+01 -.587E+00 -.170E+01   -.432E-03 -.423E-03 -.320E-02
   0.351E+02 0.275E+03 -.111E+04   -.363E+02 -.280E+03 0.113E+04   0.110E+01 0.518E+01 -.161E+02   -.456E-04 0.483E-03 -.306E-02
   0.838E+02 -.351E+02 -.216E+03   -.888E+02 0.380E+02 0.216E+03   0.501E+01 -.286E+01 0.114E+00   0.161E-03 -.849E-04 -.613E-03
   0.821E+02 0.367E+02 -.219E+03   -.871E+02 -.395E+02 0.218E+03   0.500E+01 0.277E+01 0.286E+00   0.201E-03 0.534E-04 -.600E-03
   -.513E+02 0.634E+02 -.214E+03   0.565E+02 -.662E+02 0.214E+03   -.525E+01 0.279E+01 -.211E+00   -.206E-03 0.915E-04 -.629E-03
   0.305E+01 -.106E+03 -.209E+03   -.372E+01 0.113E+03 0.209E+03   0.685E+00 -.754E+01 -.230E+00   -.638E-04 -.108E-03 -.659E-03
   0.671E+02 0.685E+02 -.205E+03   -.731E+02 -.720E+02 0.203E+03   0.594E+01 0.350E+01 0.263E+01   0.131E-03 0.127E-03 -.536E-03
   -.607E+02 0.724E+02 -.209E+03   0.671E+02 -.759E+02 0.207E+03   -.634E+01 0.342E+01 0.178E+01   -.158E-03 0.130E-03 -.567E-03
   -.309E+01 -.527E+02 -.222E+03   0.483E+01 0.543E+02 0.227E+03   -.178E+01 -.161E+01 -.486E+01   -.206E-04 -.122E-03 -.780E-03
   0.668E+02 -.536E+02 -.205E+03   -.720E+02 0.556E+02 0.205E+03   0.518E+01 -.200E+01 0.573E+00   0.872E-04 -.111E-03 -.646E-03
   -.155E+02 -.659E+02 -.194E+03   0.183E+02 0.684E+02 0.191E+03   -.285E+01 -.258E+01 0.367E+01   -.332E-04 -.110E-03 -.532E-03
   -.590E+02 -.604E+02 -.199E+03   0.617E+02 0.653E+02 0.198E+03   -.276E+01 -.498E+01 0.113E+01   -.252E-04 -.255E-04 -.652E-03
   -.528E+02 0.160E+02 -.218E+03   0.544E+02 -.181E+02 0.223E+03   -.151E+01 0.206E+01 -.510E+01   -.331E-04 0.722E-05 -.718E-03
   -.574E+02 0.354E+02 -.188E+03   0.586E+02 -.393E+02 0.184E+03   -.128E+01 0.393E+01 0.396E+01   -.314E-04 0.173E-04 -.575E-03
   0.452E+01 -.148E+02 0.101E+02   -.725E-12 0.334E-12 -.367E-10   -.455E+01 0.148E+02 -.103E+02   -.163E-02 -.154E-02 0.136E+01

 POSITION                                       TOTAL-FORCE (eV/Angst)
      0.00000      0.00000      0.00000         0.000079      0.003049     -0.129700
     15.90463      2.50433      0.00000         0.000358     -0.001180     -0.127510
      1.44588      2.50433      0.00000        -0.002250     -0.002723     -0.127282
      2.89175      0.00000      0.00000        -0.000365      0.004260     -0.127093
     -2.89175      5.00866      0.00000        -0.002365     -0.000226     -0.128000
     -4.33763      7.51299      0.00000        -0.001745     -0.001416     -0.129313
     -1.44588      7.51299      0.00000        -0.008645     -0.000049     -0.126751
     -0.00000      5.00866      0.00000        -0.005405     -0.008229     -0.128354
     -5.78350     10.01732      0.00000         0.003219     -0.004195     -0.132937
     10.12113     12.52165      0.00000        -0.005400     -0.000675     -0.127680
     -4.33763     12.52165      0.00000         0.005793     -0.003263     -0.130152
     -2.89175     10.01732      0.00000        -0.000734      0.000655     -0.124937
      5.78350      0.00000      0.00000         0.000784      0.001972     -0.130404
      4.33763      2.50433      0.00000         0.003482     -0.000881     -0.127519
      7.22938      2.50433      0.00000        -0.000712      0.001139     -0.127956
      8.67525      0.00000      0.00000         0.000490      0.000896     -0.131348
      2.89175      5.00866      0.00000         0.002585     -0.006516     -0.127027
      1.44588      7.51299      0.00000         0.002026      0.002210     -0.126516
      4.33763      7.51299      0.00000         0.002245      0.002514     -0.128546
      5.78350      5.00866      0.00000         0.004350     -0.007933     -0.127093
     -0.00000     10.01732      0.00000        -0.002898      0.006641     -0.126133
     -1.44588     12.52165      0.00000         0.001347     -0.001991     -0.128100
      1.44588     12.52165      0.00000         0.000495     -0.000004     -0.130119
      2.89175     10.01732      0.00000         0.002654      0.007229     -0.126946
     11.56700      0.00000      0.00000        -0.001911     -0.001881     -0.131062
     10.12113      2.50433      0.00000        -0.001352      0.000830     -0.129773
     13.01288      2.50433      0.00000         0.001699      0.002631     -0.129216
     14.45875      0.00000      0.00000         0.001754      0.000470     -0.131271
      8.67525      5.00866      0.00000        -0.000319     -0.001869     -0.129075
      7.22938      7.51299      0.00000         0.003745      0.002149     -0.127428
     10.12113      7.51299      0.00000         0.003717     -0.001364     -0.133873
     11.56700      5.00866      0.00000         0.002076      0.000701     -0.131144
      5.78350     10.01732      0.00000         0.003216      0.005334     -0.128081
      4.33763     12.52165      0.00000         0.002067     -0.002926     -0.130969
      7.22938     12.52165      0.00000        -0.003212     -0.004435     -0.129876
      8.67525     10.01732      0.00000        -0.004262      0.001458     -0.128389
      2.89178      1.66954      2.36115         0.002653     -0.022087      0.108900
      1.44590      4.17386      2.36115        -0.010354      0.005803      0.102080
     -1.44585      4.17386      2.36115        -0.013218     -0.003920      0.132662
      0.00003      1.66954      2.36115        -0.009262     -0.011844      0.134473
      0.00003      6.67819      2.36115        -0.004607      0.008773      0.129239
     -1.44585      9.18252      2.36115         0.013319     -0.009308      0.138240
     -4.33760      9.18252      2.36115         0.000437      0.009191      0.115422
     -2.89172      6.67819      2.36115        -0.005542     -0.002054      0.127229
     -2.89172     11.68685      2.36115        -0.010175      0.009009      0.129407
     -4.33760     14.19118      2.36115        -0.001522     -0.008085      0.146577
     -7.22935     14.19118      2.36115         0.002657     -0.014485      0.139257
     -5.78347     11.68685      2.36115         0.007976      0.005461      0.136289
      8.67528      1.66954      2.36115        -0.000286     -0.002115      0.150891
      7.22940      4.17386      2.36115         0.004706     -0.008518      0.141326
      4.33765      4.17386      2.36115         0.018837     -0.007958      0.100585
      5.78353      1.66954      2.36115         0.004173     -0.002954      0.147195
      5.78353      6.67819      2.36115         0.013817     -0.004266      0.106554
      4.33765      9.18252      2.36115        -0.008194     -0.006431      0.109689
      1.44590      9.18252      2.36115        -0.007637     -0.010510      0.118617
      2.89178      6.67819      2.36115        -0.000373     -0.000161      0.097595
      2.89178     11.68685      2.36115        -0.001599      0.019211      0.101491
      1.44590     14.19118      2.36115         0.000687      0.002518      0.145119
     -1.44585     14.19118      2.36115        -0.006551      0.005602      0.147967
      0.00003     11.68685      2.36115        -0.008187      0.012978      0.110270
[...]
      8.67988      8.66836     10.57208        -0.031097      0.008445     -0.016150
      5.14143      8.34604     10.47370        -0.013064      0.007627     -0.002784
      2.75591      4.10408     10.23822        -0.027390      0.049913      0.010583
      0.60563      8.14345     10.18584        -0.005265      0.006645      0.006682
      0.58535      5.66650     10.08116         0.011874      0.006482     -0.004335
      4.90585      5.67086     10.31015         0.017238     -0.008347      0.006563
      5.04273      9.35691     10.50380         0.002520     -0.004875      0.001590
      1.93621      3.63323      9.86120        -0.008974     -0.000014     -0.005580
      3.62599      3.64672      9.97924         0.036398     -0.017746     -0.011132
      3.08770     10.14648     11.47764         0.003033     -0.001120      0.021107
      1.68620     10.20805     10.37989         0.003657     -0.006230      0.010214
      3.32425     10.34659      9.72675        -0.008379     -0.020795      0.012886
      9.19168      9.61459     10.36118         0.002209     -0.003739      0.018587
      8.96217      8.27780     11.56028         0.002567     -0.007796      0.008315
      8.92179      7.92268      9.79983         0.005840      0.010470      0.004766
    total drift:                               -0.031945      0.038041      1.149082

  FREE ENERGIE OF THE ION-ELECTRON SYSTEM (eV)
  free  energy   TOTEN  =      -533.92975162 eV

  energy  without entropy=     -533.90712248  energy(sigma->0) =     -533.91843705

[...]

  free energy =  -0.523041131503E+03  energy without entropy=  -0.523018507270E+03

[...]

 d Force = 0.1582798E-03[-0.709E-04, 0.387E-03]  d Energy = 0.1663088E-03-0.803E-05
 d Force =-0.9277629E+00[-0.929E+00,-0.927E+00]  d Ewald  =-0.9277632E+00 0.371E-06

 Steepest descent step on ions:
 trial-energy change:   -0.000166  1 .order   -0.000158   -0.000387    0.000071
  (g-gl).g = 0.387E-03      g.g   = 0.387E-03  gl.gl    = 0.000E+00
 g(Force)  = 0.387E-03   g(Stress)= 0.000E+00 ortho     = 0.000E+00
 gamma     =   0.00000
 trial     =   1.00000
 opt step  =   0.84530  (harmonic =   0.84530) maximal distance =0.00061062
 next E    =  -533.929915   (d E  =  -0.00016)

[...]

 d Force = 0.5611099E-05[ 0.251E-06, 0.110E-04]  d Energy = 0.6129837E-05-0.519E-06
 d Force = 0.1436622E+00[ 0.144E+00, 0.144E+00]  d Ewald  = 0.1436625E+00-0.302E-06

[...]

 eigenvalue-minimisations  :  5543
 total energy-change (2. order) :-0.1020235E-05  (-0.2666971E-06)
 number of electron    1654.0000754 magnetization
 augmentation part      760.3670075 magnetization

[...]

 eigenvalues of (default mixing * dielectric matrix)
  average eigenvalue GAMMA=   1.1256
  2.0442  0.8671  0.4654

[...]

--------------------------------------- Iteration      4(   5)  ---------------------------------------

 eigenvalue-minimisations  :  2583
 total energy-change (2. order) : 0.1442677E-05  (-0.5355834E-07)
 number of electron    1654.0000754 magnetization
 augmentation part      760.3670075 magnetization

 DIPCOR: dipole corrections for dipol
 direction  3 min pos   167,
 dipolmoment           0.000000      0.000000     -0.314935 electrons x Angstroem
 Tr[quadrupol]    -87239.883859

 energy correction for charged system         0.000000 eV
 dipol+quadrupol energy correction           -0.001576 eV
 added-field ion interaction         -6.312160 eV  (added to PSCEN)

  free energy =  -0.523041252729E+03  energy without entropy=  -0.523018629678E+03

------------------------ aborting loop because EDIFF is reached ----------------------------------------

  Number of pair interactions contributing to vdW energy:  664720
  Edisp (eV):  -10.88874

  FORCE on cell =-STRESS in cart. coord.  units (eV):
  Direction    XX          YY          ZZ          XY          YZ          ZX
  Alpha Z  3286.08781  3286.08781  3286.08781
  Ewald  473199.99823472149.06566************   556.15224   289.31828   221.12741
  Hartree515270.14730514259.38817************   503.91357   190.49813   159.43209
  E(xc)   -8631.72544 -8631.61145 -8660.50064     0.06329     0.42325     0.26893
  Local  ************************************ -1063.40501  -467.78193  -374.15250
  n-local -1366.12133 -1369.26822 -1410.45354     0.99542     0.26221     0.21436
  augment 13250.61228 13250.34180 13304.49415     0.09390    -0.40282    -0.06053
  Kinetic 20708.91057 20708.78496 20976.72680     2.20778   -12.06657    -6.82480
  Fock        0.00000     0.00000     0.00000     0.00000     0.00000     0.00000
  vdW       -15.05196   -15.16617   -11.82144    -0.02212    -0.03241    -0.01811
  Total       9.74419     9.67693    10.06741    -0.00094     0.21815    -0.01315
  in kB       2.71168     2.69296     2.80162    -0.00026     0.06071    -0.00366

  FREE ENERGIE OF THE ION-ELECTRON SYSTEM (eV)
  free  energy   TOTEN  =      -533.92999698 eV

  energy  without entropy=     -533.90737393  energy(sigma->0) =     -533.91868545

 d Force = 0.6839995E-04[ 0.354E-04, 0.101E-03]  d Energy = 0.7292277E-04-0.452E-05
 d Force =-0.3268365E+00[-0.327E+00,-0.327E+00]  d Ewald  =-0.3268372E+00 0.669E-06

 Conjugate gradient step on ions:
 trial-energy change:   -0.000073  1 .order   -0.000068   -0.000101   -0.000035
  (g-gl).g = 0.107E-03      g.g   = 0.105E-03  gl.gl    = 0.387E-03
 g(Force)  = 0.105E-03   g(Stress)= 0.000E+00 ortho     =-0.163E-05
 gamma     =   0.27536
 trial     =   0.96906
 opt step  =   1.48931  (harmonic =   1.48931) maximal distance =0.00058466
 next E    =  -533.930002   (d E  =  -0.00008)

 reached required accuracy - stopping structural energy minimisation