 vasp.5.4.4.18Apr17-6-g9f103f2a35 (build Jun 30 2017 19:19:18) complex

 executed on         MareNostrum4 date 2022.12.13  11:22:56

 INCAR:
 POTCAR:    PAW_PBE Ru 04Feb2005
 POTCAR:    PAW_PBE H 15Jun2001
 POTCAR:    PAW_PBE C 08Apr2002

 POTCAR:    PAW_PBE Ru 04Feb2005

 POTCAR:    PAW_PBE H 15Jun2001

 POTCAR:    PAW_PBE C 08Apr2002

 Optimization of the real space projectors (new method)

 maximal supplied QI-value         = 13.98
 optimisation between [QCUT,QGAM] = [ 10.77, 21.68] = [ 32.47,131.56] Ry
 Optimized for a Real-space Cutoff    1.51 Angstroem

   l    n(q)    QCUT    max X(q) W(low)/X(q) W(high)/X(q)  e(spline)
   2      9    10.768    61.733    0.26E-03    0.97E-04    0.28E-06
   2      9    10.768    59.886    0.26E-03    0.10E-03    0.29E-06
   0     10    10.768    23.358    0.12E-03    0.28E-03    0.38E-06
   0     10    10.768    11.320    0.93E-04    0.23E-03    0.31E-06
   1      9    10.768    14.765    0.48E-03    0.21E-03    0.19E-06
   1      9    10.768     8.283    0.36E-03    0.16E-03    0.15E-06
 Optimization of the real space projectors (new method)

[...]

   l    n(q)    QCUT    max X(q) W(low)/X(q) W(high)/X(q)  e(spline)
   0      8    10.603    19.460    0.37E-03    0.59E-03    0.23E-06
   0      8    10.603    12.209    0.35E-03    0.56E-03    0.22E-06
   1      7    10.603     4.655    0.70E-04    0.28E-03    0.29E-06
 Optimization of the real space projectors (new method)

 maximal supplied QI-value         = 25.13
 optimisation between [QCUT,QGAM] = [ 10.81, 21.61] = [ 32.71,130.83] Ry
 Optimized for a Real-space Cutoff    1.23 Angstroem

   l    n(q)    QCUT    max X(q) W(low)/X(q) W(high)/X(q)  e(spline)
   0      8    10.807   115.676    0.36E-03    0.72E-03    0.24E-06
   0      8    10.807    87.132    0.35E-03    0.71E-03    0.24E-06
   1      7    10.807     4.429    0.19E-03    0.39E-03    0.11E-06
   1      7    10.807     2.733    0.14E-03    0.28E-03    0.13E-06
  PAW_PBE Ru 04Feb2005                  :
  PAW_PBE H 15Jun2001                   :
  PAW_PBE C 08Apr2002                   :

 POSCAR: Ru  H  C
  positions in cartesian coordinates
 exchange correlation table for  LEXCH =        8
   RHO(1)=    0.500       N(1)  =     2000
   RHO(2)=  100.500       N(2)  =     4000

 ion  position               nearest neighbor table
   1  0.000  0.083  0.000-  14 2.65  13 2.65 114 2.65  57 2.71   2 2.71 101 2.71 102 2.71   3 2.71
                           107 2.71
   2  0.167  0.000  0.000-  69 2.65  14 2.65  16 2.65  57 2.71   1 2.71  60 2.71   4 2.71   3 2.71
                            58 2.71
   3  0.083  0.167  0.000-  19 2.65  15 2.65  14 2.65   7 2.71 107 2.71   1 2.71   8 2.71   2 2.71
                             4 2.71
   4  0.250  0.083  0.000-  17 2.65  16 2.65  15 2.65  60 2.71   5 2.71   6 2.71   2 2.71   8 2.71
                             3 2.71
   5  0.417  0.000  0.000-  72 2.65  17 2.65 109 2.65 153 2.71   4 2.71  97 2.71  60 2.71 151 2.71
                             6 2.71
   6  0.333  0.167  0.000-  22 2.65  18 2.65  17 2.65  10 2.71   8 2.71   4 2.71  11 2.71   5 2.71
                            97 2.71
   7  1.000  0.333  0.000-  19 2.65 120 2.65  20 2.65   3 2.71 107 2.71 108 2.71   8 2.71 149 2.71
                             9 2.71
   8  0.167  0.250  0.000-  22 2.65  15 2.65  20 2.65  10 2.71   6 2.71   3 2.71   7 2.71   4 2.71
                             9 2.71
   9  0.083  0.417  0.000-  21 2.65  61 2.65  20 2.65  49 2.71  50 2.71 149 2.71  10 2.71   8 2.71
                             7 2.71
  10  0.250  0.333  0.000-  22 2.65  23 2.65  21 2.65   6 2.71   8 2.71   9 2.71  11 2.71  50 2.71
                            12 2.71
  11  0.417  0.250  0.000- 115 2.65  18 2.65  23 2.65 103 2.71  99 2.71   6 2.71  10 2.71  97 2.71
                            12 2.71
  12  0.333  0.417  0.000-  24 2.65  64 2.65  23 2.65  52 2.71  53 2.71 103 2.71  50 2.71  11 2.71
                            10 2.71
  13  0.000  0.000  0.107-  25 2.64 125 2.64  81 2.64 101 2.65   1 2.65  57 2.65  14 2.71 168 2.71
                            69 2.71 113 2.71  68 2.71 114 2.71
  14  0.083  0.083  0.107-  25 2.64  26 2.64  27 2.64   1 2.65   2 2.65   3 2.65  69 2.71  13 2.71
                           114 2.71  16 2.71  19 2.71  15 2.71
  15  0.167  0.167  0.107-  32 2.64  28 2.64  27 2.64   8 2.65   3 2.65   4 2.65  20 2.71  22 2.71
                            17 2.71  19 2.71  16 2.71  14 2.71
  16  0.250  0.000  0.107-  84 2.64  26 2.64  28 2.64  60 2.65   4 2.65   2 2.65  17 2.71  72 2.71
                            69 2.71  14 2.71  15 2.71  71 2.71
  17  0.333  0.083  0.107-  29 2.64  30 2.64  28 2.64   4 2.65   5 2.65   6 2.65  72 2.71  16 2.71
                            15 2.71 109 2.71  22 2.71  18 2.71
  18  0.417  0.167  0.107- 121 2.64  30 2.64  35 2.64  11 2.65   6 2.65  97 2.65  23 2.71 115 2.71
                           110 2.71  22 2.71 109 2.71  17 2.71
  19  1.000  0.250  0.107-  31 2.64 131 2.64  27 2.64 107 2.65   7 2.65   3 2.65 114 2.71 119 2.71
                            20 2.71  15 2.71 120 2.71  14 2.71
  20  0.083  0.333  0.107-  33 2.64  31 2.64  32 2.64   8 2.65   7 2.65   9 2.65  15 2.71  22 2.71
                           120 2.71  21 2.71  19 2.71  61 2.71
  21  0.167  0.417  0.107-  33 2.64  34 2.64  74 2.64   9 2.65  50 2.65  10 2.65  62 2.71  61 2.71
                            20 2.71  64 2.71  22 2.71  23 2.71
  22  0.250  0.250  0.107-  34 2.64  30 2.64  32 2.64   8 2.65  10 2.65   6 2.65  15 2.71  20 2.71
                            23 2.71  18 2.71  17 2.71  21 2.71
  23  0.333  0.333  0.107-  36 2.64  34 2.64  35 2.64  11 2.65  10 2.65  12 2.65  18 2.71 115 2.71
                            24 2.71  22 2.71  64 2.71  21 2.71
  24  0.417  0.417  0.107-  77 2.64  36 2.64 127 2.64  12 2.65  53 2.65 103 2.65  65 2.71  64 2.71
                            23 2.71 157 2.71 115 2.71 116 2.71
  25  0.000  0.083  0.214- 138 2.59  37 2.59  38 2.59  14 2.64 114 2.64  13 2.64  27 2.71 131 2.71
                           126 2.71  26 2.71 125 2.71  81 2.71
  26  0.167  1.000  0.214-  93 2.59  38 2.59  40 2.59  69 2.64  14 2.64  16 2.64  84 2.71  25 2.71
                            28 2.71  81 2.71  82 2.71  27 2.71
  27  0.083  0.167  0.214-  38 2.59  39 2.59  43 2.59  19 2.64  15 2.64  14 2.64 131 2.71  25 2.71
                            31 2.71  32 2.71  28 2.71  26 2.71
  28  0.250  0.083  0.214-  41 2.59  39 2.59  40 2.59  16 2.64  15 2.64  17 2.64  29 2.71  84 2.71
                            30 2.71  26 2.71  27 2.71  32 2.71
  29  0.417  0.000  0.213- 133 2.59  96 2.59  41 2.59  17 2.64  72 2.64 109 2.64  30 2.71  28 2.71
                            84 2.71 175 2.71 177 2.71 121 2.71
  30  0.333  0.167  0.213-  41 2.59  42 2.59  46 2.59  17 2.64  18 2.64  22 2.64  29 2.71  28 2.71
                            35 2.71  32 2.71  34 2.71 121 2.71
  31  0.000  0.333  0.213-  44 2.59 144 2.59  43 2.59  19 2.64  20 2.64 120 2.64 131 2.71  27 2.71
                            32 2.71  33 2.71 132 2.71 173 2.71
  32  0.167  0.250  0.214-  44 2.59  46 2.59  39 2.59  20 2.64  15 2.64  22 2.64  33 2.71  34 2.71
                            31 2.71  27 2.71  28 2.71  30 2.71
  33  0.083  0.417  0.213-  45 2.58  85 2.59  44 2.59  21 2.64  20 2.64  61 2.64  34 2.71  32 2.71
                            74 2.71  31 2.71  73 2.71 173 2.72
  34  0.250  0.333  0.214-  47 2.58  45 2.59  46 2.59  22 2.64  23 2.64  21 2.64  33 2.71  32 2.71
                            35 2.71  36 2.71  30 2.71  74 2.71
  35  0.417  0.250  0.214-  47 2.58  42 2.59 139 2.59  18 2.64  23 2.64 115 2.64 121 2.71  36 2.71
                            34 2.71 123 2.71  30 2.71 127 2.71
  36  0.333  0.417  0.213-  48 2.59  47 2.59  88 2.60  23 2.64  24 2.64  64 2.64  77 2.71 127 2.71
                            35 2.71  34 2.71  76 2.71  74 2.71
  37  0.000  1.000  0.316-  81 2.59  25 2.59 125 2.59  93 2.71 138 2.71  38 2.71  92 2.71 192 2.71
                           137 2.71
  38  0.083  0.083  0.316-  27 2.59  26 2.59  25 2.59  40 2.71  93 2.71  39 2.71 138 2.71  43 2.71
                            37 2.71
  39  0.167  0.167  0.317-  27 2.59  28 2.59  32 2.59  40 2.71  38 2.71  46 2.71  41 2.71  44 2.71
                            43 2.71
  40  0.250  0.000  0.317-  28 2.59  84 2.59  26 2.59  38 2.71  39 2.71  93 2.71  41 2.71  95 2.71
                            96 2.71
  41  0.333  0.083  0.317-  28 2.59  30 2.59  29 2.59  96 2.71  46 2.71  39 2.71 133 2.71  40 2.71
                            42 2.71
  42  0.417  0.167  0.316-  35 2.59  30 2.59 121 2.59  47 2.70 139 2.71 134 2.71  46 2.71  41 2.71
                           133 2.71
  43  0.000  0.250  0.317- 131 2.59  27 2.59  31 2.59 143 2.71 138 2.71  38 2.71  39 2.71  44 2.71
                           144 2.71
  44  0.083  0.333  0.316-  32 2.59  31 2.59  33 2.59  45 2.71  46 2.71  39 2.71 144 2.71  43 2.71
                            85 2.71
  45  0.167  0.417  0.316-  33 2.58  74 2.59  34 2.59  44 2.71  85 2.71  46 2.71  88 2.71  47 2.72
                            86 2.72
  46  0.250  0.250  0.317-  32 2.59  34 2.59  30 2.59  47 2.70  45 2.71  41 2.71  39 2.71  44 2.71
                            42 2.71
  47  0.333  0.333  0.316-  35 2.58  34 2.58  36 2.59  42 2.70  46 2.70 139 2.71  45 2.72  48 2.72
                            88 2.73
  48  0.417  0.416  0.316- 127 2.58  77 2.59  36 2.59 140 2.70 139 2.71 181 2.71  47 2.72  89 2.73
                            88 2.73
  49  0.000  0.583  0.000-  62 2.65  61 2.65 162 2.65   9 2.71  50 2.71 149 2.71 150 2.71  51 2.71
                           155 2.71
  50  0.167  0.500  0.000-  21 2.65  62 2.65  64 2.65   9 2.71  49 2.71  52 2.71  12 2.71  51 2.71
                            10 2.71
  51  0.083  0.667  0.000-  67 2.65  63 2.65  62 2.65  55 2.71 155 2.71  49 2.71  56 2.71  50 2.71
                            52 2.71
  52  0.250  0.583  0.000-  65 2.65  64 2.65  63 2.65  12 2.71  53 2.71  54 2.71  50 2.71  56 2.71
                            51 2.71
  53  0.417  0.500  0.000-  24 2.65  65 2.65 157 2.65 145 2.71 105 2.71  12 2.71  52 2.71 103 2.71
                            54 2.71
  54  0.333  0.667  0.000-  70 2.65  66 2.65  65 2.65  58 2.71  56 2.71  59 2.71 145 2.71  52 2.71
                            53 2.71
  55  1.000  0.833  0.000-  67 2.65 168 2.65  68 2.65  51 2.71 155 2.71 156 2.71  56 2.71 101 2.71
                            57 2.71
  56  0.167  0.750  0.000-  70 2.65  63 2.65  68 2.65  54 2.71  58 2.71  51 2.71  55 2.71  52 2.71
                            57 2.71
  57  0.083  0.917  0.000-  69 2.65  13 2.65  68 2.65   1 2.71   2 2.71 101 2.71  58 2.71  56 2.71
                            55 2.71
  58  0.250  0.833  0.000-  70 2.65  71 2.65  69 2.65  54 2.71  59 2.71  56 2.71  57 2.71  60 2.71
                             2 2.71
  59  0.417  0.750  0.000-  66 2.65  71 2.65 163 2.65  58 2.71  54 2.71 151 2.71 147 2.71 145 2.71
                            60 2.71
  60  0.333  0.917  0.000-  16 2.65  71 2.65  72 2.65   4 2.71   2 2.71  58 2.71   5 2.71  59 2.71
                           151 2.71
  61  0.000  0.500  0.107-  33 2.64  73 2.64 173 2.64 149 2.65  49 2.65   9 2.65  62 2.71 120 2.71
[...]
   -.983E+00 0.554E+01 -.153E+04   0.993E+00 -.554E+01 0.152E+04   -.109E-01 -.235E-02 0.460E+01   -.201E-02 0.272E-02 -.534E-01
   0.129E+02 0.638E+01 -.152E+04   -.129E+02 -.638E+01 0.152E+04   -.874E-02 -.746E-02 0.462E+01   -.486E-02 0.310E-02 -.539E-01
   0.423E+02 0.141E+02 -.150E+04   -.423E+02 -.141E+02 0.150E+04   0.415E-02 0.226E-02 0.461E+01   -.111E-02 0.326E-02 -.536E-01
   0.337E+02 -.169E+02 -.151E+04   -.337E+02 0.169E+02 0.150E+04   -.182E-02 0.115E-02 0.462E+01   0.202E-02 -.601E-03 -.538E-01
   0.468E+02 0.260E+02 -.147E+04   -.468E+02 -.260E+02 0.147E+04   0.900E-02 -.696E-02 0.458E+01   0.427E-02 -.188E-02 -.555E-01
   0.389E+02 0.750E+02 -.139E+04   -.390E+02 -.751E+02 0.139E+04   -.142E-01 -.411E-01 0.464E+01   0.232E-02 -.228E-02 -.556E-01
   -.490E+01 0.264E+02 -.151E+04   0.490E+01 -.264E+02 0.151E+04   -.415E-03 0.541E-02 0.463E+01   -.404E-02 0.350E-02 -.526E-01
   0.367E+02 0.524E+01 -.149E+04   -.367E+02 -.525E+01 0.149E+04   -.121E-01 0.126E-01 0.460E+01   -.252E-02 0.163E-02 -.528E-01
   0.708E+02 -.325E+02 -.145E+04   -.708E+02 0.325E+02 0.145E+04   0.255E-01 0.359E-01 0.458E+01   -.559E-03 0.174E-02 -.533E-01
   0.827E+02 0.190E+02 -.143E+04   -.826E+02 -.190E+02 0.143E+04   -.280E-01 -.249E-01 0.458E+01   0.595E-04 0.726E-03 -.527E-01
   0.763E+02 -.122E+02 -.134E+04   -.765E+02 0.122E+02 0.134E+04   0.147E+00 0.103E+00 0.488E+01   0.131E-02 0.373E-03 -.545E-01
   0.402E+02 -.249E+02 -.131E+04   -.402E+02 0.250E+02 0.130E+04   -.101E+00 0.878E-01 0.488E+01   0.301E-02 0.103E-02 -.566E-01
   0.321E+01 -.719E+01 0.155E+04   -.321E+01 0.717E+01 -.155E+04   0.998E-02 0.111E-01 -.390E+01   0.187E-02 0.123E-01 -.597E-01
   0.165E+02 -.934E+01 0.155E+04   -.165E+02 0.934E+01 -.155E+04   -.913E-02 -.166E-02 -.389E+01   0.408E-02 0.237E-02 -.585E-01
   0.108E+02 -.132E+02 0.155E+04   -.108E+02 0.132E+02 -.155E+04   -.517E-02 0.767E-02 -.390E+01   0.519E-04 0.614E-02 -.583E-01
   0.171E+02 -.163E+02 0.155E+04   -.171E+02 0.163E+02 -.154E+04   0.609E-02 -.137E-01 -.388E+01   -.562E-03 0.407E-02 -.565E-01
   0.824E+01 -.806E+01 0.154E+04   -.825E+01 0.807E+01 -.154E+04   -.801E-02 -.338E-02 -.388E+01   -.370E-02 -.104E-02 -.559E-01
   0.113E+02 -.203E+02 0.155E+04   -.113E+02 0.203E+02 -.154E+04   0.102E-01 -.167E-01 -.388E+01   -.726E-02 0.264E-02 -.560E-01
   0.301E+01 -.610E+01 0.156E+04   -.301E+01 0.610E+01 -.155E+04   0.887E-02 0.184E-01 -.392E+01   -.284E-02 -.323E-02 -.582E-01
   0.126E+02 -.173E+02 0.155E+04   -.126E+02 0.173E+02 -.155E+04   0.120E-01 0.724E-02 -.389E+01   -.197E-02 0.972E-03 -.568E-01
   0.551E+01 -.686E+01 0.156E+04   -.551E+01 0.685E+01 -.155E+04   0.309E-02 -.567E-02 -.391E+01   0.259E-02 -.375E-02 -.582E-01
   0.104E+02 -.174E+02 0.155E+04   -.104E+02 0.174E+02 -.155E+04   -.954E-02 -.696E-02 -.389E+01   -.418E-02 0.387E-02 -.574E-01
   0.298E+01 -.188E+02 0.155E+04   -.298E+01 0.188E+02 -.154E+04   0.982E-02 -.136E-01 -.388E+01   -.475E-02 0.434E-02 -.579E-01
   0.742E+01 -.113E+02 0.155E+04   -.741E+01 0.113E+02 -.155E+04   -.834E-02 0.780E-02 -.390E+01   -.421E-02 0.815E-02 -.583E-01
[...]
   0.113E+02 0.985E+02 -.494E+03   -.114E+02 -.984E+02 0.494E+03   0.106E+00 -.135E+00 -.725E+00   -.181E-03 -.591E-03 0.422E-01
   0.181E+03 -.260E+02 -.508E+03   -.181E+03 0.259E+02 0.508E+03   -.336E-03 0.111E+00 0.166E+00   -.188E-02 -.817E-04 0.450E-01
   0.613E+02 0.156E+01 -.472E+03   -.612E+02 -.141E+01 0.472E+03   0.293E-02 -.220E+00 0.150E+00   -.371E-03 -.213E-03 0.436E-01
   -.388E+02 0.678E+02 -.453E+03   0.387E+02 -.676E+02 0.453E+03   0.158E+00 -.211E+00 -.593E+00   0.523E-03 -.218E-03 0.419E-01
   -.620E+01 0.100E+03 -.400E+03   0.612E+01 -.998E+02 0.400E+03   0.792E-01 -.185E+00 0.466E+00   -.234E-03 -.179E-02 0.459E-01
   0.115E+02 0.497E+00 -.485E+03   -.114E+02 -.578E+00 0.485E+03   -.158E+00 0.979E-01 0.387E-01   0.833E-04 0.292E-03 0.425E-01
   -.596E+02 0.592E+02 -.432E+03   0.594E+02 -.590E+02 0.433E+03   0.188E+00 -.229E+00 -.466E+00   0.556E-03 -.151E-03 0.413E-01
   0.141E+03 -.167E+03 -.456E+03   -.140E+03 0.166E+03 0.456E+03   -.277E+00 0.364E+00 0.134E+00   -.700E-03 0.107E-02 0.433E-01
   -.290E+01 -.508E+02 -.434E+03   0.281E+01 0.508E+02 0.434E+03   0.115E+00 -.822E-01 0.269E+00   0.409E-03 0.185E-03 0.429E-01
   -.943E+02 0.445E+02 -.451E+03   0.941E+02 -.442E+02 0.451E+03   0.209E+00 -.229E+00 -.503E+00   0.688E-03 -.228E-03 0.418E-01
   -.635E+02 0.300E+02 -.362E+03   0.634E+02 -.299E+02 0.361E+03   0.110E+00 -.141E+00 0.576E+00   0.140E-02 -.279E-03 0.456E-01
   -.935E+02 -.631E+02 -.517E+03   0.933E+02 0.629E+02 0.517E+03   0.272E+00 0.259E+00 -.124E+00   0.943E-03 0.470E-03 0.435E-01
   -.190E+03 -.352E+02 -.530E+03   0.189E+03 0.351E+02 0.530E+03   0.454E+00 0.171E+00 -.551E+00   0.108E-02 -.517E-04 0.433E-01
   0.355E+02 -.191E+03 -.497E+03   -.352E+02 0.191E+03 0.497E+03   -.288E+00 0.406E+00 -.361E-01   0.333E-03 0.769E-03 0.436E-01
   -.426E+00 -.437E+00 0.229E+02   0.161E-11 -.603E-11 0.149E-10   0.418E+00 0.455E+00 -.288E+00   0.244E-02 -.256E-02 -.228E+02

 POSITION                                       TOTAL-FORCE (eV/Angst)
      0.78291      1.35605      0.00000         0.005331      0.007866      0.713557
      3.13166      0.00000      0.00000        -0.014414      0.000755      0.715978
      3.13166      2.71210      0.00000        -0.004850      0.010755      0.723939
      5.48040      1.35605      0.00000        -0.003195     -0.005589      0.725897
      7.82915      0.00000      0.00000        -0.014157     -0.002294      0.718852
      7.82915      2.71210      0.00000         0.004901     -0.009478      0.713572
     21.92161      5.42419      0.00000         0.005649      0.012198      0.723261
      5.48040      4.06814      0.00000         0.014439     -0.002351      0.723342
      5.48040      6.78024      0.00000         0.012968     -0.009746      0.722704
      7.82915      5.42419      0.00000        -0.005149     -0.008475      0.721191
     10.17789      4.06814      0.00000         0.004087      0.000731      0.722399
     10.17789      6.78024      0.00000        -0.005594      0.016466      0.726756
      0.00000      0.00000      2.14396         0.000349      0.002244     -0.723786
      2.34874      1.35605      2.14396        -0.009720     -0.002670     -0.718150
      4.69749      2.71210      2.14396        -0.003638     -0.001735     -0.707032
      4.69749      0.00000      2.14396        -0.000242      0.002909     -0.723850
      7.04623      1.35605      2.14396        -0.000159     -0.002520     -0.728653
      9.39498      2.71210      2.14396         0.002609     -0.009268     -0.725740
     21.13869      4.06814      2.14396         0.005429     -0.006372     -0.728261
      4.69749      5.42419      2.14396        -0.011243      0.008427     -0.726735
      7.04623      6.78024      2.14396        -0.010343      0.021991     -0.732654
      7.04623      4.06814      2.14396        -0.002759     -0.008433     -0.733658
      9.39498      5.42419      2.14396         0.008805     -0.005971     -0.716020
     11.74372      6.78024      2.14396         0.012104     -0.007932     -0.723432
      0.78385      1.35694      4.27001         0.000226     -0.005989     -0.004844
     12.52621     16.27227      4.27064        -0.002557      0.000656     -0.003092
      3.13142      2.71254      4.27226        -0.005818     -0.001004     -0.012026
      5.47984      1.35585      4.27156         0.008234      0.000313      0.007862
      7.82782      0.00072      4.26929        -0.006151     -0.003992      0.005855
      7.82872      2.71096      4.26992         0.011703      0.005157      0.004732
      3.13160      5.42374      4.26995         0.002556      0.008004     -0.000284
      5.48023      4.06842      4.27126         0.007401     -0.001977      0.004378
      5.48165      6.77887      4.26976        -0.016963     -0.007410     -0.008453
      7.82886      5.42368      4.27024         0.019477     -0.003277      0.056588
     10.17727      4.06760      4.27082         0.002104     -0.036834     -0.062328
     10.17766      6.77918      4.26974         0.011261      0.035970      0.050927
      9.39591     16.27229      6.32802        -0.003174     -0.003686     -0.004028
      2.34913      1.35602      6.32989        -0.002166     -0.004981      0.008035
      4.69724      2.71166      6.33138         0.005046     -0.001503     -0.002953
      4.69676      0.00060      6.33283        -0.000848     -0.000483      0.002018
      7.04574      1.35624      6.33004         0.000780      0.000117      0.001294
      9.39492      2.71210      6.32991        -0.055426     -0.067499     -0.020023
      2.34849      4.06762      6.33258        -0.001882      0.002206      0.005962
      4.69730      5.42356      6.32993         0.001035      0.003305      0.002380
      7.04258      6.77774      6.32837         0.024640      0.034513      0.026352
      7.04549      4.06750      6.33229        -0.013920     -0.010709     -0.012751
      9.38990      5.41209      6.32651        -0.049211      0.124845      0.055858
     11.75013      6.77078      6.32937        -0.053771      0.149876      0.050149
      5.48040      9.49233      0.00000         0.008687      0.007943      0.718631
      7.82915      8.13629      0.00000        -0.006343     -0.005052      0.721040
      7.82915     10.84838      0.00000        -0.002002      0.004775      0.729548
     10.17789      9.49233      0.00000         0.000303     -0.014739      0.728446
     12.52663      8.13629      0.00000        -0.015013      0.003644      0.719270
     12.52663     10.84838      0.00000         0.012594     -0.016913      0.728555
     26.61910     13.56048      0.00000         0.004945      0.017952      0.714238
     10.17789     12.20443      0.00000         0.012932     -0.001413      0.728710
     10.17789     14.91653      0.00000         0.006052     -0.011453      0.713914
     12.52663     13.56048      0.00000        -0.002143     -0.010356      0.729360
     14.87538     12.20443      0.00000         0.005583     -0.007673      0.729342
     14.87538     14.91653      0.00000        -0.005461      0.007206      0.725357
[...]
      9.31120      3.73866     10.14853         0.020960      0.011229      0.004643
     10.61046      4.40968      9.70270         0.007840      0.041361     -0.065102
      8.19939      4.73786     10.46991        -0.000291     -0.023172     -0.023165
     11.22056      5.42702     10.67435         0.009880     -0.014776      0.004378
     12.49642      6.02065     10.06131        -0.002853      0.006052      0.013062
     11.49714      4.79290     12.04164         0.005871      0.007060     -0.002814
     13.09357      7.23607     10.78223        -0.016901     -0.002730     -0.015896
     14.47257      7.57358     10.19774         0.007965     -0.013998      0.052939
     12.15103      8.44090     10.70801        -0.001212     -0.001813      0.010278
     15.25466      8.67317     10.92984        -0.008803      0.005941     -0.043460
     16.53576      9.01871     10.15890         0.024910      0.030577      0.034958
     15.58045      8.25467     12.36799         0.000069      0.004848      0.006034
     17.26698     10.28739     10.62228        -0.019519      0.008257     -0.038695
     18.63376     10.39251      9.94755         0.040791      0.098856      0.031136
     16.44029     11.54719     10.35036         0.019125      0.029236      0.014370
    total drift:                               -0.005403      0.015900     -0.252799

  FREE ENERGIE OF THE ION-ELECTRON SYSTEM (eV)
  free  energy   TOTEN  =     -1948.92969762 eV

  energy  without entropy=    -1948.80081449  energy(sigma->0) =    -1948.86525606

[...]

  free energy =  -0.193019182658E+04  energy without entropy=  -0.193006279065E+04

[...]

 d Force = 0.2620633E-02[ 0.211E-02, 0.313E-02]  d Energy = 0.2800482E-02-0.180E-03
 d Force = 0.2519047E+01[ 0.251E+01, 0.252E+01]  d Ewald  = 0.2519047E+01-0.521E-06

 Steepest descent step on ions:
 trial-energy change:   -0.002800  1 .order   -0.002621   -0.003130   -0.002111
  (g-gl).g = 0.313E-02      g.g   = 0.313E-02  gl.gl    = 0.000E+00
 g(Force)  = 0.313E-02   g(Stress)= 0.000E+00 ortho     = 0.000E+00
 gamma     =   0.00000
 trial     =   1.00000
 opt step  =   1.73136  (harmonic =   3.07285) maximal distance =0.00375554
 next E    = -1948.933341   (d E  =  -0.00364)

[...]

 Conjugate gradient step on ions:
 trial-energy change:   -0.001792  1 .order   -0.001774   -0.002241   -0.001307
  (g-gl).g = 0.318E-02      g.g   = 0.319E-02  gl.gl    = 0.313E-02
 g(Force)  = 0.319E-02   g(Stress)= 0.000E+00 ortho     = 0.139E-04
 gamma     =   1.01441
 trial     =   0.69952
 opt step  =   1.67936  (harmonic =   1.67936) maximal distance =0.00561211
 next E    = -1948.937594   (d E  =  -0.00269)

[...]

 Conjugate gradient step on ions:
 trial-energy change:   -0.000271  1 .order   -0.000265   -0.000332   -0.000198
  (g-gl).g = 0.356E-03      g.g   = 0.357E-03  gl.gl    = 0.421E-03
 g(Force)  = 0.357E-03   g(Stress)= 0.000E+00 ortho     = 0.662E-05
 gamma     =   0.84472
 trial     =   0.91645
 opt step  =   2.26311  (harmonic =   2.26311) maximal distance =0.00195715
 next E    = -1948.938631   (d E  =  -0.00041)

[...]

 d Force = 0.2535111E-05[-0.622E-05, 0.113E-04]  d Energy =-0.1777931E-04 0.203E-04
 d Force = 0.3353590E+00[ 0.335E+00, 0.335E+00]  d Ewald  = 0.3353590E+00-0.582E-09

[...]

 eigenvalue-minimisations  : 10509
 total energy-change (2. order) :-0.1349890E-03  (-0.3772948E-04)
 number of electron    1628.0000027 magnetization
 augmentation part      528.8507547 magnetization

[...]

 eigenvalues of (default mixing * dielectric matrix)
  average eigenvalue GAMMA=   0.2589
  0.5438  0.1668  0.0661

[...]

--------------------------------------- Iteration     12(   5)  ---------------------------------------

 eigenvalue-minimisations  :  5686
 total energy-change (2. order) : 0.5083813E-05  (-0.1611075E-05)
 number of electron    1628.0000027 magnetization
 augmentation part      528.8514133 magnetization

 DIPCOR: dipole corrections for dipol
 direction  3 min pos   157,
 dipolmoment           0.000000      0.000000     -0.721099 electrons x Angstroem
 Tr[quadrupol]   -101665.253656

 energy correction for charged system         0.000000 eV
 dipol+quadrupol energy correction           -0.008011 eV
 added-field ion interaction        -30.301062 eV  (added to PSCEN)

  free energy =  -0.193019870705E+04  energy without entropy=  -0.193006937483E+04

------------------------ aborting loop because EDIFF is reached ----------------------------------------

  Number of pair interactions contributing to vdW energy: 1244818
  Edisp (eV):  -18.74005

  FORCE on cell =-STRESS in cart. coord.  units (eV):
  Direction    XX          YY          ZZ          XY          YZ          ZX
  Alpha Z  3034.29605  3034.29605  3034.29605
  Ewald  331377.91503330222.55938************  2595.34001   -34.00677   -31.80815
  Hartree352719.94843351717.60657************  2359.59567   -37.88600   -12.24498
  E(xc)   -7566.12945 -7566.35794 -7582.72363     0.36840    -0.01694    -0.04110
  Local  ************************715854.76190 -4960.45752    70.34226    47.52806
  n-local  2067.79437  2066.65046  1822.91456     0.74284     0.19130    -0.56890
  augment  8674.31921  8674.24947  8679.56727     0.11348     0.01768    -0.04228
  Kinetic 19202.82371 19197.22270 19335.96609     4.97218     1.76942    -2.86168
  Fock        0.00000     0.00000     0.00000     0.00000     0.00000     0.00000
  vdW       -22.76808   -22.29941   -19.84008    -0.62802    -0.02031     0.02945
  Total    -163.12400  -163.05928   -78.28881     0.04704     0.39063    -0.00957
  in kB     -42.73823   -42.72128   -20.51155     0.01232     0.10234    -0.00251

  FREE ENERGIE OF THE ION-ELECTRON SYSTEM (eV)
  free  energy   TOTEN  =     -1948.93875950 eV

  energy  without entropy=    -1948.80942728  energy(sigma->0) =    -1948.87409339

 d Force = 0.1345212E-03[ 0.103E-03, 0.166E-03]  d Energy = 0.1327700E-03 0.175E-05
 d Force = 0.1242030E+01[ 0.124E+01, 0.124E+01]  d Ewald  = 0.1242030E+01 0.216E-06

 Conjugate gradient step on ions:
 trial-energy change:   -0.000133  1 .order   -0.000135   -0.000166   -0.000103
  (g-gl).g = 0.161E-03      g.g   = 0.143E-03  gl.gl    = 0.357E-03
 g(Force)  = 0.143E-03   g(Stress)= 0.000E+00 ortho     =-0.212E-04
 gamma     =   0.45068
 trial     =   1.24437
 opt step  =   3.30543  (harmonic =   3.30543) maximal distance =0.00169443
 next E    = -1948.938847   (d E  =  -0.00022)

 reached required accuracy - stopping structural energy minimisation