 vasp.5.3.2 13Sep12 (build Oct 24 2012 13:28:27) complex

 executed on             LinuxIFC date 2016.06.10  16:14:00

 INCAR:
 POTCAR:    PAW_PBE Au 04Oct2007
 POTCAR:    PAW_PBE Au 04Oct2007

 Optimization of the real space projectors (new method)

 maximal supplied QI-value         = 15.12
 optimisation between [QCUT,QGAM] = [ 10.73, 21.62] = [ 32.26,130.87] Ry
 Optimized for a Real-space Cutoff    1.42 Angstroem

   l    n(q)    QCUT    max X(q) W(low)/X(q) W(high)/X(q)  e(spline)
   2      8    10.734    60.898    0.15E-03    0.34E-03    0.26E-06
   2      8    10.734    58.894    0.16E-03    0.35E-03    0.27E-06
   0      9    10.734   109.617    0.92E-04    0.16E-03    0.12E-06
   0      9    10.734    75.026    0.89E-04    0.15E-03    0.11E-06
   1      9    10.734    16.344    0.25E-03    0.88E-04    0.14E-06
   1      9    10.734    10.160    0.20E-03    0.77E-04    0.11E-06
  PAW_PBE Au 04Oct2007                  :

 POSCAR: Au
  positions in direct lattice
  velocities in cartesian coordinates
 exchange correlation table for  LEXCH =        8
   RHO(1)=    0.500       N(1)  =     2000
   RHO(2)=  100.500       N(2)  =     4000

 ion  position               nearest neighbor table
   1  0.000  0.000  0.000-   2 2.94  12 2.94   8 2.94   6 2.94  20 2.94  18 2.94  13 2.94   5 2.94
                             9 2.94
   2  0.167  0.167  0.000-   9 2.94   1 2.94   6 2.94   7 2.94  13 2.94   4 2.94  14 2.94  15 2.94
                             3 2.94
   3  0.333  0.333  0.000-   8 2.94  10 2.94   5 2.94   4 2.94  17 2.94   7 2.94  19 2.94  15 2.94
                             2 2.94
   4  0.500  0.000  0.000-   5 2.94   9 2.94   3 2.94  11 2.94  23 2.94  15 2.94  16 2.94  12 2.94
                             2 2.94
   5  0.667  0.167  0.000-  12 2.94   4 2.94   3 2.94  10 2.94  16 2.94   1 2.94  17 2.94  18 2.94
                             6 2.94
   6  0.833  0.333  0.000-  11 2.94   7 2.94   2 2.94   1 2.94  14 2.94  10 2.94  22 2.94  18 2.94
                             5 2.94
   7  0.000  0.500  0.000-   6 2.94   8 2.94   2 2.94  12 2.94  14 2.94  24 2.94  19 2.94   3 2.94
                            11 2.94
   8  0.167  0.667  0.000-   3 2.94   7 2.94  12 2.94   1 2.94  19 2.94  10 2.94  20 2.94  21 2.94
                             9 2.94
   9  0.333  0.833  0.000-   2 2.94   4 2.94  11 2.94  10 2.94  23 2.94   1 2.94  13 2.94  21 2.94
                             8 2.94
  10  0.500  0.500  0.000-   3 2.94  11 2.94   9 2.94   5 2.94  17 2.94  21 2.94  22 2.94   8 2.94
                             6 2.94
  11  0.667  0.667  0.000-   6 2.94  10 2.94   9 2.94   4 2.94  22 2.94   7 2.94  23 2.94  24 2.94
                            12 2.94
  12  0.833  0.833  0.000-   5 2.94   1 2.94   8 2.94   7 2.94  20 2.94   4 2.94  16 2.94  24 2.94
                            11 2.94
  13  0.167  0.000  0.120-  33 2.94  25 2.94  26 2.94  20 2.94  18 2.94  21 2.94  14 2.94  15 2.94
                             2 2.94   1 2.94  23 2.94   9 2.94
  14  0.000  0.333  0.120-  35 2.94  27 2.94  25 2.94  24 2.94  19 2.94  13 2.94  18 2.94   7 2.94
                             6 2.94  15 2.94  22 2.94   2 2.94
  15  0.333  0.167  0.120-  26 2.94  28 2.94  27 2.94  23 2.94  16 2.94  19 2.94  17 2.94  13 2.94
                             4 2.94  14 2.94   3 2.94   2 2.94
  16  0.667  0.000  0.120-  36 2.94  28 2.94  29 2.94  23 2.94  15 2.94  24 2.94  17 2.94  18 2.94
                             5 2.94   4 2.94  20 2.94  12 2.94
  17  0.500  0.333  0.120-  32 2.94  30 2.94  28 2.94  21 2.94  22 2.94  16 2.94  15 2.94  10 2.94
                             3 2.94  19 2.94  18 2.94   5 2.94
  18  0.833  0.167  0.120-  29 2.94  25 2.94  30 2.94  20 2.94  13 2.94  22 2.94  16 2.94  14 2.94
                             1 2.94  17 2.94   6 2.94   5 2.94
  19  0.167  0.500  0.120-  27 2.94  31 2.94  32 2.94  14 2.94  24 2.94  15 2.94  20 2.94  21 2.94
                             8 2.94   7 2.94  17 2.94   3 2.94
  20  0.000  0.833  0.120-  29 2.94  33 2.94  31 2.94  18 2.94  13 2.94  19 2.94  24 2.94   1 2.94
                            12 2.94  16 2.94  21 2.94   8 2.94
  21  0.333  0.667  0.120-  32 2.94  34 2.94  33 2.94  17 2.94  22 2.94  13 2.94  23 2.94  19 2.94
                            10 2.94  20 2.94   9 2.94   8 2.94
  22  0.667  0.500  0.120-  30 2.94  34 2.94  35 2.94  17 2.94  21 2.94  23 2.94  18 2.94  24 2.94
                            11 2.94  10 2.94  14 2.94   6 2.94
  23  0.500  0.833  0.120-  26 2.94  36 2.94  34 2.94  15 2.94  16 2.94  22 2.94  21 2.94   4 2.94
                             9 2.94  24 2.94  13 2.94  11 2.94
  24  0.833  0.667  0.120-  35 2.94  31 2.94  36 2.94  14 2.94  19 2.94  16 2.94  22 2.94  20 2.94
                             7 2.94  23 2.94  12 2.94  11 2.94
  25  0.000  0.167  0.240-  13 2.94  18 2.94  14 2.94  33 2.94  29 2.94  35 2.94  27 2.94  37 2.94
                            38 2.94  26 2.94  30 2.94  42 2.94
  26  0.333  0.000  0.240-  15 2.94  23 2.94  13 2.94  28 2.94  36 2.94  34 2.94  27 2.94  33 2.94
                            45 2.94  40 2.94  25 2.94  38 2.94
  27  0.167  0.333  0.240-  19 2.94  14 2.94  15 2.94  31 2.94  35 2.94  26 2.94  32 2.94  25 2.94
                            43 2.94  28 2.94  38 2.94  39 2.94
  28  0.500  0.167  0.240-  16 2.94  15 2.94  17 2.94  36 2.94  26 2.94  32 2.94  30 2.94  40 2.94
                            41 2.94  29 2.94  27 2.94  39 2.94
  29  0.833  0.000  0.240-  18 2.94  20 2.94  16 2.94  25 2.94  33 2.94  31 2.94  30 2.94  36 2.94
                            48 2.94  37 2.94  28 2.94  41 2.94
  30  0.667  0.333  0.240-  22 2.94  17 2.94  18 2.94  34 2.94  32 2.94  29 2.94  28 2.94  35 2.94
                            46 2.94  25 2.94  41 2.94  42 2.94
  31  0.000  0.667  0.240-  19 2.94  24 2.94  20 2.94  27 2.94  35 2.94  29 2.94  33 2.94  43 2.94
                            44 2.94  32 2.94  36 2.94  48 2.94
  32  0.333  0.500  0.240-  21 2.94  17 2.94  19 2.94  34 2.94  30 2.94  33 2.94  28 2.94  27 2.94
                            39 2.94  46 2.94  31 2.94  44 2.94
  33  0.167  0.833  0.240-  13 2.94  20 2.94  21 2.94  25 2.94  29 2.94  32 2.94  31 2.94  26 2.94
                            37 2.94  34 2.94  44 2.94  45 2.94
  34  0.500  0.667  0.240-  22 2.94  21 2.94  23 2.94  30 2.94  32 2.94  26 2.94  36 2.94  46 2.94
                            47 2.94  35 2.94  33 2.94  45 2.94
  35  0.833  0.500  0.240-  24 2.94  14 2.94  22 2.94  31 2.94  27 2.94  25 2.94  36 2.94  30 2.94
                            42 2.94  43 2.94  34 2.94  47 2.94
  36  0.667  0.833  0.240-  16 2.94  23 2.94  24 2.94  28 2.94  26 2.94  35 2.94  34 2.94  29 2.94
                            40 2.94  31 2.94  47 2.94  48 2.94
  37  0.000  0.000  0.360-  38 2.94  48 2.94  44 2.94  42 2.94  25 2.94  33 2.94  29 2.94  45 2.94
                            41 2.94
  38  0.167  0.167  0.360-  45 2.94  37 2.94  42 2.94  43 2.94  25 2.94  40 2.94  26 2.94  27 2.94
                            39 2.94
  39  0.333  0.333  0.360-  44 2.94  46 2.94  41 2.94  40 2.94  32 2.94  43 2.94  28 2.94  27 2.94
                            38 2.94
  40  0.500  0.000  0.360-  41 2.94  45 2.94  39 2.94  47 2.94  28 2.94  36 2.94  26 2.94  38 2.94
                            48 2.94
  41  0.667  0.167  0.360-  48 2.94  40 2.94  39 2.94  46 2.94  28 2.94  37 2.94  29 2.94  30 2.94
                            42 2.94
  42  0.833  0.333  0.360-  47 2.94  43 2.94  38 2.94  37 2.94  35 2.94  46 2.94  25 2.94  30 2.94
                            41 2.94
  43  0.000  0.500  0.360-  42 2.94  44 2.94  38 2.94  48 2.94  31 2.94  27 2.94  35 2.94  47 2.94
                            39 2.94
  44  0.167  0.667  0.360-  39 2.94  43 2.94  48 2.94  37 2.94  31 2.94  46 2.94  32 2.94  33 2.94
                            45 2.94
  45  0.333  0.833  0.360-  38 2.94  40 2.94  47 2.94  46 2.94  26 2.94  37 2.94  34 2.94  33 2.94
                            44 2.94
  46  0.500  0.500  0.360-  39 2.94  47 2.94  45 2.94  41 2.94  34 2.94  30 2.94  32 2.94  42 2.94
                            44 2.94
  47  0.667  0.667  0.360-  42 2.94  46 2.94  45 2.94  40 2.94  34 2.94  43 2.94  35 2.94  36 2.94
                            48 2.94
  48  0.833  0.833  0.360-  41 2.94  37 2.94  44 2.94  43 2.94  29 2.94  40 2.94  31 2.94  36 2.94
                            47 2.94

  LATTYP: Found a hexagonal cell.
 ALAT       =    10.1802357175
 C/A-ratio  =     1.9645910522

  Lattice vectors:

 A1 = (   5.0901178587,  -8.8163427478,   0.0000000000)
 A2 = ( -10.1802357175,   0.0000000000,   0.0000000000)
 A3 = (   0.0000000000,   0.0000000000, -20.0000000000)

Analysis of symmetry for initial positions (statically):
 Subroutine PRICEL returns following result:

[...]

  12 primitive cells build up your supercell.

 Routine SETGRP: Setting up the symmetry group for a
 hexagonal supercell.

 Subroutine GETGRP returns: Found 12 space group operations
 (whereof  6 operations were pure point group operations)
 out of a pool of 24 trial point group operations.

The static configuration has the point symmetry C_3v.
 The point group associated with its full space group is D_3d.

Analysis of symmetry for dynamics (positions and initial velocities):
 Subroutine PRICEL returns following result:

[...]

The dynamic configuration has the point symmetry C_3v.
 The point group associated with its full space group is D_3d.

Analysis of constrained symmetry for selective dynamics:
 Subroutine PRICEL returns following result:

  LATTYP: Found a hexagonal cell.
 ALAT       =     2.9387809159
 C/A-ratio  =     6.8055430371

  Lattice vectors:

 A1 = (  -2.5450589294,  -1.4693904580,   0.0000000000)
 A2 = (   0.0000000000,   2.9387809159,   0.0000000000)
 A3 = (   0.0000000000,   0.0000000000, -20.0000000000)

  12 primitive cells build up your supercell.

 Routine SETGRP: Setting up the symmetry group for a
 hexagonal supercell.

 Subroutine GETGRP returns: Found  6 space group operations
 (whereof  6 operations were pure point group operations)
 out of a pool of 24 trial point group operations.

The constrained configuration has the point symmetry C_3v.

 KPOINTS: K-POINTS

Automatic generation of k-mesh.
Space group operators:
 irot       det(A)        alpha          n_x          n_y          n_z        tau_x        tau_y        tau_z
    1     1.000000     0.000000     1.000000     0.000000     0.000000     0.000000     0.000000     0.000000
    2     1.000000   120.000000     0.000000     0.000000     1.000000     0.000000     0.000000     0.000000
    3     1.000000   120.000000     0.000000     0.000000    -1.000000     0.000000     0.000000     0.000000
    4    -1.000000   180.000000     0.866025    -0.500000     0.000000     0.000000     0.000000     0.000000
    5    -1.000000   180.000000     0.866025     0.500000     0.000000     0.000000     0.000000     0.000000
    6    -1.000000   179.999999     0.000000     1.000000     0.000000     0.000000     0.000000     0.000000

 Subroutine IBZKPT returns following result:

 Found      3 irreducible k-points:

 Following reciprocal coordinates:
            Coordinates               Weight
  0.000000  0.000000  0.000000      1.000000
[...]
 total charge-density along one line

------------------------ aborting loop because EDIFF is reached ----------------------------------------

  Grimme's potential added to compensate for missing vdW interactions

  Parameters for Grimme's potential:
         C6(Jnm^6/mol)     R0(A)
   Au       7.308          1.823

  VDW_RADIUS =    40.000 A
  VDW_S6 =     0.750 A
  VDW_D =    20.000 A

  Number of pair interactions contributing to vdW energy:  171396
  Estimated vdW energy (eV):  -4.02218

  FORCE on cell =-STRESS in cart. coord.  units (eV):
  Direction    XX          YY          ZZ          XY          YZ          ZX
  Alpha Z  1495.05121  1495.05121  1495.05121
  Ewald  118491.44815118491.44815************     0.00000     0.00000     0.00000
  Hartree130585.74403130585.74403************     0.00000     0.00000     0.00000
  E(xc)   -2369.72881 -2369.72879 -2379.45076    -0.00001     0.00000     0.00000
  Local  ************************265971.28508     0.00280     0.00002    -0.00001
  n-local   -74.81076   -78.60968   -49.46596    -3.29006    -2.93539    -1.68800
  augment  3246.36777  3246.37052  3265.29741    -0.00238    -0.00002     0.00001
  Kinetic  7335.38550  7330.63939  7400.26841    -4.11031    -0.65433    -0.37778
  Fock        0.00000     0.00000     0.00000     0.00000     0.00000     0.00000
  Total     -32.67204   -32.67204    -3.40493     0.00000     0.00000     0.00000
  in kB     -29.16155   -29.16155    -3.03908     0.00000     0.00000     0.00000

 VOLUME and BASIS-vectors are now :
  energy-cutoff  :      450.00
  volume of cell :     1795.05
      direct lattice vectors                 reciprocal lattice vectors
    10.180235717  0.000000000  0.000000000     0.098229553 -0.056712859  0.000000000
     5.090117859  8.816342748  0.000000000     0.000000000  0.113425717  0.000000000
     0.000000000  0.000000000 20.000000000     0.000000000  0.000000000  0.050000000

  length of vectors
    10.180235717 10.180235717 20.000000000     0.113425717  0.113425717  0.050000000

 FORCES acting on ions
    electron-ion (+dipol)            ewald-force                    non-local-force                 convergence-correction
   -.118E-06 0.109E-07 0.227E+04   0.227E-12 0.449E-13 -.227E+04   -.493E-17 0.173E-17 -.501E+00   -.619E-09 0.107E-08 -.642E-02
   -.118E-06 0.109E-07 0.227E+04   0.686E-10 0.396E-10 -.227E+04   -.428E-17 0.564E-17 -.501E+00   -.619E-09 0.107E-08 -.642E-02
   -.118E-06 0.109E-07 0.227E+04   -.682E-10 -.393E-10 -.227E+04   0.173E-17 0.163E-17 -.501E+00   -.619E-09 0.107E-08 -.642E-02
   -.118E-06 0.109E-07 0.227E+04   0.256E-12 0.551E-13 -.227E+04   -.596E-18 0.228E-17 -.501E+00   -.619E-09 0.107E-08 -.642E-02
   -.118E-06 0.109E-07 0.227E+04   0.687E-10 0.395E-10 -.227E+04   0.146E-17 -.759E-18 -.501E+00   -.619E-09 0.107E-08 -.642E-02
   -.118E-06 0.109E-07 0.227E+04   -.682E-10 -.392E-10 -.227E+04   0.542E-17 0.542E-18 -.501E+00   -.619E-09 0.107E-08 -.642E-02
   -.118E-06 0.109E-07 0.227E+04   0.286E-12 0.902E-13 -.227E+04   0.482E-17 0.520E-17 -.501E+00   -.619E-09 0.107E-08 -.642E-02
   -.118E-06 0.109E-07 0.227E+04   0.686E-10 0.396E-10 -.227E+04   0.434E-17 0.152E-17 -.501E+00   -.619E-09 0.107E-08 -.642E-02
   -.118E-06 0.109E-07 0.227E+04   -.681E-10 -.393E-10 -.227E+04   -.705E-18 0.163E-17 -.501E+00   -.619E-09 0.107E-08 -.642E-02
   -.118E-06 0.109E-07 0.227E+04   0.343E-12 0.181E-13 -.227E+04   0.201E-17 0.217E-17 -.501E+00   -.619E-09 0.107E-08 -.642E-02
   -.118E-06 0.109E-07 0.227E+04   0.687E-10 0.395E-10 -.227E+04   -.320E-17 0.239E-17 -.501E+00   -.619E-09 0.107E-08 -.642E-02
   -.118E-06 0.109E-07 0.227E+04   -.681E-10 -.392E-10 -.227E+04   -.585E-17 -.976E-18 -.501E+00   -.619E-09 0.107E-08 -.642E-02
   0.723E-08 0.288E-07 0.762E+03   0.519E-10 -.934E-11 -.761E+03   -.106E-16 0.911E-17 -.558E+00   -.336E-09 0.582E-09 -.207E-01
   0.723E-08 0.288E-07 0.762E+03   -.179E-10 -.495E-10 -.761E+03   -.889E-17 0.802E-17 -.558E+00   -.336E-09 0.582E-09 -.207E-01
   0.723E-08 0.288E-07 0.762E+03   -.338E-10 0.587E-10 -.761E+03   -.130E-16 0.160E-16 -.558E+00   -.336E-09 0.582E-09 -.207E-01
   0.723E-08 0.288E-07 0.762E+03   0.518E-10 -.943E-11 -.761E+03   -.126E-16 0.119E-16 -.558E+00   -.336E-09 0.582E-09 -.207E-01
   0.723E-08 0.288E-07 0.762E+03   -.179E-10 -.495E-10 -.761E+03   0.651E-17 0.156E-16 -.558E+00   -.336E-09 0.582E-09 -.207E-01
   0.723E-08 0.288E-07 0.762E+03   -.339E-10 0.587E-10 -.761E+03   -.390E-17 0.954E-17 -.558E+00   -.336E-09 0.582E-09 -.207E-01
   0.723E-08 0.288E-07 0.762E+03   0.519E-10 -.944E-11 -.761E+03   -.102E-16 0.867E-17 -.558E+00   -.336E-09 0.582E-09 -.207E-01
   0.723E-08 0.288E-07 0.762E+03   -.179E-10 -.495E-10 -.761E+03   -.102E-16 0.106E-16 -.558E+00   -.336E-09 0.582E-09 -.207E-01
   0.723E-08 0.288E-07 0.762E+03   -.339E-10 0.587E-10 -.761E+03   -.108E-16 0.124E-16 -.558E+00   -.336E-09 0.582E-09 -.207E-01
   0.723E-08 0.288E-07 0.762E+03   0.519E-10 -.948E-11 -.761E+03   0.651E-18 0.141E-16 -.558E+00   -.336E-09 0.582E-09 -.207E-01
   0.723E-08 0.288E-07 0.762E+03   -.178E-10 -.495E-10 -.761E+03   -.169E-16 0.111E-16 -.558E+00   -.336E-09 0.582E-09 -.207E-01
   0.723E-08 0.288E-07 0.762E+03   -.339E-10 0.587E-10 -.761E+03   -.976E-17 0.954E-17 -.558E+00   -.336E-09 0.582E-09 -.207E-01
   0.815E-07 0.394E-07 -.762E+03   0.178E-10 0.495E-10 0.761E+03   -.195E-17 0.499E-17 0.546E+00   -.138E-09 0.239E-09 -.216E-01
   0.814E-07 0.394E-07 -.762E+03   -.519E-10 0.944E-11 0.761E+03   -.412E-17 0.282E-17 0.546E+00   -.138E-09 0.239E-09 -.216E-01
   0.815E-07 0.394E-07 -.762E+03   0.339E-10 -.587E-10 0.761E+03   -.520E-17 0.564E-17 0.546E+00   -.138E-09 0.239E-09 -.216E-01
   0.815E-07 0.394E-07 -.762E+03   0.179E-10 0.495E-10 0.761E+03   -.347E-17 -.260E-17 0.546E+00   -.138E-09 0.239E-09 -.216E-01
   0.815E-07 0.394E-07 -.762E+03   -.518E-10 0.945E-11 0.761E+03   -.282E-17 0.000E+00 0.546E+00   -.138E-09 0.239E-09 -.216E-01
   0.815E-07 0.394E-07 -.762E+03   0.339E-10 -.588E-10 0.761E+03   0.542E-17 0.390E-17 0.546E+00   -.138E-09 0.239E-09 -.216E-01
   0.815E-07 0.394E-07 -.762E+03   0.178E-10 0.495E-10 0.761E+03   -.585E-17 0.369E-17 0.546E+00   -.138E-09 0.239E-09 -.216E-01
   0.814E-07 0.394E-07 -.762E+03   -.519E-10 0.942E-11 0.761E+03   -.477E-17 0.455E-17 0.546E+00   -.138E-09 0.239E-09 -.216E-01
   0.815E-07 0.394E-07 -.762E+03   0.339E-10 -.587E-10 0.761E+03   0.152E-17 0.000E+00 0.546E+00   -.138E-09 0.239E-09 -.216E-01
   0.815E-07 0.394E-07 -.762E+03   0.179E-10 0.495E-10 0.761E+03   0.390E-17 0.173E-17 0.546E+00   -.138E-09 0.239E-09 -.216E-01
   0.815E-07 0.394E-07 -.762E+03   -.518E-10 0.942E-11 0.761E+03   -.260E-17 0.130E-17 0.546E+00   -.138E-09 0.239E-09 -.216E-01
   0.815E-07 0.394E-07 -.762E+03   0.340E-10 -.587E-10 0.761E+03   -.173E-17 0.347E-17 0.546E+00   -.138E-09 0.239E-09 -.216E-01
   0.146E-06 0.322E-07 -.227E+04   -.398E-12 0.142E-13 0.227E+04   0.119E-17 -.607E-17 0.492E+00   -.380E-09 0.658E-09 -.867E-02
   0.146E-06 0.322E-07 -.227E+04   0.681E-10 0.393E-10 0.227E+04   0.417E-17 -.390E-17 0.492E+00   -.379E-09 0.658E-09 -.867E-02
   0.146E-06 0.322E-07 -.227E+04   -.687E-10 -.395E-10 0.227E+04   0.445E-17 0.217E-18 0.492E+00   -.380E-09 0.658E-09 -.867E-02
   0.146E-06 0.322E-07 -.227E+04   -.369E-12 0.142E-13 0.227E+04   -.201E-17 -.369E-17 0.492E+00   -.380E-09 0.658E-09 -.867E-02
   0.146E-06 0.322E-07 -.227E+04   0.682E-10 0.392E-10 0.227E+04   -.813E-18 -.260E-17 0.492E+00   -.380E-09 0.658E-09 -.867E-02
   0.146E-06 0.322E-07 -.227E+04   -.687E-10 -.397E-10 0.227E+04   -.482E-17 -.369E-17 0.492E+00   -.380E-09 0.658E-09 -.867E-02
   0.146E-06 0.322E-07 -.227E+04   -.295E-12 -.568E-13 0.227E+04   -.493E-17 0.217E-18 0.492E+00   -.380E-09 0.658E-09 -.867E-02
   0.146E-06 0.322E-07 -.227E+04   0.681E-10 0.393E-10 0.227E+04   -.190E-17 -.325E-18 0.492E+00   -.380E-09 0.658E-09 -.867E-02
   0.146E-06 0.322E-07 -.227E+04   -.686E-10 -.396E-10 0.227E+04   -.439E-17 -.542E-18 0.492E+00   -.379E-09 0.658E-09 -.867E-02
   0.146E-06 0.322E-07 -.227E+04   -.287E-12 -.425E-13 0.227E+04   0.325E-18 0.325E-18 0.492E+00   -.380E-09 0.658E-09 -.867E-02
   0.146E-06 0.322E-07 -.227E+04   0.682E-10 0.392E-10 0.227E+04   0.136E-17 -.271E-17 0.492E+00   -.380E-09 0.658E-09 -.867E-02
   0.146E-06 0.322E-07 -.227E+04   -.685E-10 -.396E-10 0.227E+04   -.867E-18 -.520E-17 0.492E+00   -.380E-09 0.658E-09 -.867E-02
   0.140E-05 0.134E-05 0.753E+00   -.238E-12 -.216E-12 0.909E-12   -.129E-15 0.161E-15 -.252E+00   -.177E-07 0.306E-07 -.690E+00

 POSITION                                       TOTAL-FORCE (eV/Angst)
      0.00000      0.00000      0.00000         0.000000      0.000000     -0.019530
      2.54506      1.46939      0.00000         0.000000      0.000000     -0.019530
      5.09012      2.93878      0.00000         0.000000      0.000000     -0.019530
      5.09012      0.00000      0.00000         0.000000      0.000000     -0.019530
      7.63518      1.46939      0.00000         0.000000      0.000000     -0.019530
     10.18024      2.93878      0.00000         0.000000      0.000000     -0.019530
      2.54506      4.40817      0.00000         0.000000      0.000000     -0.019530
      5.09012      5.87756      0.00000         0.000000      0.000000     -0.019530
      7.63518      7.34695      0.00000         0.000000      0.000000     -0.019530
      7.63518      4.40817      0.00000         0.000000      0.000000     -0.019530
     10.18024      5.87756      0.00000         0.000000      0.000000     -0.019530
     12.72529      7.34695      0.00000         0.000000      0.000000     -0.019530
      1.69671      0.00000      2.39950         0.000000      0.000000      0.184889
      1.69671      2.93878      2.39950         0.000000      0.000000      0.184889
      4.24176      1.46939      2.39950         0.000000      0.000000      0.184889
      6.78682      0.00000      2.39950         0.000000      0.000000      0.184889
      6.78682      2.93878      2.39950         0.000000      0.000000      0.184889
      9.33188      1.46939      2.39950         0.000000      0.000000      0.184889
      4.24176      4.40817      2.39950         0.000000      0.000000      0.184889
      4.24176      7.34695      2.39950         0.000000      0.000000      0.184889
      6.78682      5.87756      2.39950         0.000000      0.000000      0.184889
      9.33188      4.40817      2.39950         0.000000      0.000000      0.184889
      9.33188      7.34695      2.39950         0.000000      0.000000      0.184889
     11.87694      5.87756      2.39950         0.000000      0.000000      0.184889
      0.84835      1.46939      4.79901         0.000000      0.000000     -0.186724
      3.39341      0.00000      4.79901         0.000000      0.000000     -0.186724
      3.39341      2.93878      4.79901         0.000000      0.000000     -0.186724
      5.93847      1.46939      4.79901         0.000000      0.000000     -0.186724
      8.48353      0.00000      4.79901         0.000000      0.000000     -0.186724
      8.48353      2.93878      4.79901         0.000000      0.000000     -0.186724
      3.39341      5.87756      4.79901         0.000000      0.000000     -0.186724
      5.93847      4.40817      4.79901         0.000000      0.000000     -0.186724
      5.93847      7.34695      4.79901         0.000000      0.000000     -0.186724
      8.48353      5.87756      4.79901         0.000000      0.000000     -0.186724
     11.02859      4.40817      4.79901         0.000000      0.000000     -0.186724
     11.02859      7.34695      4.79901         0.000000      0.000000     -0.186724
      0.00000      0.00000      7.19851         0.000000      0.000000      0.021365
      2.54506      1.46939      7.19851         0.000000      0.000000      0.021365
      5.09012      2.93878      7.19851         0.000000      0.000000      0.021365
      5.09012      0.00000      7.19851         0.000000      0.000000      0.021365
      7.63518      1.46939      7.19851         0.000000      0.000000      0.021365
     10.18024      2.93878      7.19851         0.000000      0.000000      0.021365
      2.54506      4.40817      7.19851         0.000000      0.000000      0.021365
      5.09012      5.87756      7.19851         0.000000      0.000000      0.021365
      7.63518      7.34695      7.19851         0.000000      0.000000      0.021365
      7.63518      4.40817      7.19851         0.000000      0.000000      0.021365
     10.18024      5.87756      7.19851         0.000000      0.000000      0.021365
     12.72529      7.34695      7.19851         0.000000      0.000000      0.021365
    total drift:                                0.000001      0.000001     -0.188719

  FREE ENERGIE OF THE ION-ELECTRON SYSTEM (eV)
  free  energy   TOTEN  =      -150.72809226 eV

  energy  without entropy=     -150.70221850  energy(sigma->0) =     -150.71515538

 Quasi-Newton relaxation of ions (Broydens 2nd method)
  g(Force)  = 0.102E-01   g(Stress)= 0.000E+00

 Reset! Starting new Quasi-Newton update for ions

[...]

  free energy =  -0.146713162053E+03  energy without entropy=  -0.146687379199E+03

[...]

 d Force = 0.9190649E-02[ 0.816E-02, 0.102E-01]  d Energy = 0.9428912E-02-0.238E-03
 d Force =-0.2714188E+02[-0.272E+02,-0.271E+02]  d Ewald  =-0.2714181E+02-0.727E-04

[...]

 retain information from N=  1 steps
 eigenvalues of (default step * inverse Hessian matrix)
  average eigenvalue of G=   4.3353
 eigenvalue spectrum of G is  4.3353

[...]

 d Force = 0.9207349E-03[ 0.823E-03, 0.102E-02]  d Energy = 0.9039238E-03 0.168E-04
 d Force =-0.7733104E+02[-0.773E+02,-0.773E+02]  d Ewald  =-0.7733104E+02 0.415E-06

[...]

 FEWALD executed in parallel

[...]

 eigenvalue-minimisations  :  1803
 total energy-change (2. order) :-0.1276987E-03  (-0.6348442E-03)
 number of electron     527.9999383 magnetization
 augmentation part      193.4053986 magnetization

[...]

 eigenvalues of (default mixing * dielectric matrix)
  average eigenvalue GAMMA=   1.2554
  2.4075  1.3960  1.3960  0.2881  1.2108  0.8343

[...]

----------------------------------------- Iteration    8(   8)  ---------------------------------------

 eigenvalue-minimisations  :  1554
 total energy-change (2. order) : 0.8032875E-06  (-0.9756342E-06)
 number of electron     527.9999383 magnetization
 augmentation part      193.4052687 magnetization

 DIPCOR: dipole corrections for dipol
 direction  3 min pos   148,
 dipolmoment           0.000000      0.000000      0.003072 electrons x Angstroem
 Tr[quadrupol]     -9609.115070

 energy correction for charged system         0.000000 eV
 dipol+quadrupol energy correction            0.000000 eV
 added-field ion interaction          0.004955 eV  (added to PSCEN)

  free energy =  -0.146726670086E+03  energy without entropy=  -0.146705980646E+03

------------------------ aborting loop because EDIFF is reached ----------------------------------------

  Number of pair interactions contributing to vdW energy:  171288
  Estimated vdW energy (eV):  -4.04781

  FORCE on cell =-STRESS in cart. coord.  units (eV):
  Direction    XX          YY          ZZ          XY          YZ          ZX
  Alpha Z  1495.05121  1495.05121  1495.05121
  Ewald  119779.13928119779.13928************     0.00000     0.00000     0.00000
  Hartree131861.50478131861.50478************     0.00000     0.00000     0.00000
  E(xc)   -2370.36313 -2370.36311 -2379.92960    -0.00002     0.00000     0.00000
  Local  ************************268556.89501     0.00280     0.00002    -0.00001
  n-local   -70.39551   -74.16516   -45.44292    -3.26476    -2.99433    -1.72177
  augment  3246.39236  3246.39511  3263.94082    -0.00238    -0.00003     0.00002
  Kinetic  7337.51693  7332.69775  7399.23769    -4.17360    -0.69439    -0.40090
  Fock        0.00000     0.00000     0.00000     0.00000     0.00000     0.00000
  Total     -30.14533   -30.14533    -0.28777     0.00000     0.00000     0.00000
  in kB     -26.90632   -26.90632    -0.25685     0.00000     0.00000     0.00000

  FREE ENERGIE OF THE ION-ELECTRON SYSTEM (eV)
  free  energy   TOTEN  =      -150.77447690 eV

  energy  without entropy=     -150.75378746  energy(sigma->0) =     -150.76413218

 d Force = 0.1585586E-02[-0.444E-03, 0.362E-02]  d Energy = 0.1390140E-02 0.195E-03
 d Force =-0.3391343E+03[-0.339E+03,-0.339E+03]  d Ewald  =-0.3391344E+03 0.362E-04

 Quasi-Newton relaxation of ions (Broydens 2nd method)
  g(Force)  = 0.340E-05   g(Stress)= 0.000E+00

 retain information from N=  1 steps
 eigenvalues of (default step * inverse Hessian matrix)
  average eigenvalue of G=  12.1472
 eigenvalue spectrum of G is 12.1472

 reached required accuracy - stopping structural energy minimisation