 vasp.5.3.3 18Dez12 (build Jan 17 2013 15:17:09) complex

 executed on             LinuxIFC date 2014.10.20  15:36:18

 INCAR:
 POTCAR:    PAW_PBE Pt 04Feb2005

 POTCAR:    PAW_PBE Pt 04Feb2005

 Optimization of the real space projectors (new method)

 maximal supplied QI-value         = 14.36
 optimisation between [QCUT,QGAM] = [ 10.77, 21.69] = [ 32.49,131.70] Ry
 Optimized for a Real-space Cutoff    1.46 Angstroem

   l    n(q)    QCUT    max X(q) W(low)/X(q) W(high)/X(q)  e(spline)
   2      9    10.771    66.195    0.13E-03    0.31E-03    0.27E-06
   2      9    10.771    64.643    0.13E-03    0.32E-03    0.28E-06
   0     10    10.771    95.520    0.41E-04    0.13E-03    0.15E-06
   0     10    10.771    63.403    0.40E-04    0.12E-03    0.14E-06
   1      9    10.771    19.961    0.42E-03    0.19E-03    0.28E-06
   1      9    10.771    13.289    0.35E-03    0.16E-03    0.23E-06
  PAW_PBE Pt 04Feb2005                  :

 POSCAR: Pt
  positions in direct lattice
  velocities in cartesian coordinates
 exchange correlation table for  LEXCH =        8
   RHO(1)=    0.500       N(1)  =     2000
   RHO(2)=  100.500       N(2)  =     4000

 ion  position               nearest neighbor table
   1  0.000  0.000  0.000-   2 2.81  12 2.81   9 2.81   5 2.81   6 2.81   8 2.81  13 2.81  18 2.81
                            20 2.81
   2  0.167  0.167  0.000-   1 2.81   6 2.81   9 2.81   4 2.81   7 2.81  13 2.81  14 2.81  15 2.81
                             3 2.81
   3  0.333  0.333  0.000-  10 2.81   8 2.81   5 2.81   7 2.81   4 2.81  17 2.81  19 2.81  15 2.81
                             2 2.81
   4  0.500  0.000  0.000-   5 2.81   9 2.81   2 2.81  12 2.81  11 2.81   3 2.81  15 2.81  16 2.81
                            23 2.81
   5  0.667  0.167  0.000-   4 2.81   3 2.81  12 2.81   1 2.81  10 2.81  16 2.81  17 2.81  18 2.81
                             6 2.81
   6  0.833  0.333  0.000-   7 2.81   2 2.81  11 2.81  10 2.81   1 2.81  14 2.81  22 2.81  18 2.81
                             5 2.81
   7  0.000  0.500  0.000-   6 2.81   8 2.81   3 2.81  11 2.81   2 2.81  12 2.81  14 2.81  19 2.81
                            24 2.81
   8  0.167  0.667  0.000-   7 2.81   3 2.81  12 2.81  10 2.81   1 2.81  19 2.81  20 2.81  21 2.81
                             9 2.81
   9  0.333  0.833  0.000-   4 2.81   2 2.81  11 2.81   1 2.81  10 2.81  23 2.81  13 2.81  21 2.81
                             8 2.81
  10  0.500  0.500  0.000-   3 2.81  11 2.81   8 2.81   6 2.81   9 2.81   5 2.81  17 2.81  21 2.81
                            22 2.81
  11  0.667  0.667  0.000-  10 2.81   9 2.81   6 2.81   7 2.81   4 2.81  22 2.81  23 2.81  24 2.81
                            12 2.81
  12  0.833  0.833  0.000-   1 2.81   5 2.81   8 2.81   4 2.81   7 2.81  20 2.81  16 2.81  24 2.81
                            11 2.81
  13  0.167  0.000  0.115-  25 2.79  33 2.79  26 2.79  20 2.81  18 2.81  23 2.81  15 2.81  14 2.81
                            21 2.81   2 2.81   1 2.81   9 2.81
  14  0.000  0.333  0.115-  27 2.79  35 2.79  25 2.79  19 2.81  24 2.81  18 2.81  22 2.81  15 2.81
                            13 2.81   7 2.81   6 2.81   2 2.81
  15  0.333  0.167  0.115-  26 2.79  28 2.79  27 2.79  16 2.81  23 2.81  13 2.81  17 2.81  14 2.81
                            19 2.81   4 2.81   2 2.81   3 2.81
  16  0.667  0.000  0.115-  28 2.79  36 2.79  29 2.79  23 2.81  15 2.81  18 2.81  20 2.81  24 2.81
                            17 2.81   5 2.81   4 2.81  12 2.81
  17  0.500  0.333  0.115-  30 2.79  32 2.79  28 2.79  22 2.81  21 2.81  19 2.81  15 2.81  16 2.81
                            18 2.81  10 2.81   3 2.81   5 2.81
  18  0.833  0.167  0.115-  25 2.79  29 2.79  30 2.79  13 2.81  20 2.81  14 2.81  16 2.81  22 2.81
                            17 2.81   1 2.81   6 2.81   5 2.81
  19  0.167  0.500  0.115-  27 2.79  31 2.79  32 2.79  24 2.81  14 2.81  17 2.81  21 2.81  20 2.81
                            15 2.81   8 2.81   7 2.81   3 2.81
  20  0.000  0.833  0.115-  29 2.79  33 2.79  31 2.79  13 2.81  18 2.81  24 2.81  16 2.81  19 2.81
                            21 2.81  12 2.81   1 2.81   8 2.81
  21  0.333  0.667  0.115-  32 2.79  34 2.79  33 2.79  22 2.81  17 2.81  23 2.81  19 2.81  20 2.81
                            13 2.81  10 2.81   8 2.81   9 2.81
  22  0.667  0.500  0.115-  30 2.79  34 2.79  35 2.79  21 2.81  17 2.81  24 2.81  14 2.81  18 2.81
                            23 2.81  11 2.81  10 2.81   6 2.81
  23  0.500  0.833  0.115-  26 2.79  36 2.79  34 2.79  16 2.81  15 2.81  21 2.81  13 2.81  24 2.81
                            22 2.81   9 2.81   4 2.81  11 2.81
  24  0.833  0.667  0.115-  31 2.79  35 2.79  36 2.79  19 2.81  14 2.81  22 2.81  20 2.81  23 2.81
                            16 2.81   7 2.81  12 2.81  11 2.81
  25  0.000  0.167  0.228-  13 2.79  18 2.79  14 2.79  29 2.81  33 2.81  26 2.81  27 2.81  30 2.81
                            35 2.81  37 2.82  38 2.82  42 2.82
  26  0.333  0.000  0.228-  15 2.79  23 2.79  13 2.79  28 2.81  36 2.81  33 2.81  25 2.81  34 2.81
                            27 2.81  40 2.82  45 2.82  38 2.82
  27  0.167  0.333  0.228-  14 2.79  19 2.79  15 2.79  35 2.81  31 2.81  32 2.81  25 2.81  28 2.81
                            26 2.81  43 2.82  39 2.82  38 2.82
  28  0.500  0.167  0.228-  15 2.79  16 2.79  17 2.79  26 2.81  36 2.81  30 2.81  29 2.81  32 2.81
                            27 2.81  40 2.82  41 2.82  39 2.82
  29  0.833  0.000  0.228-  18 2.79  20 2.79  16 2.79  25 2.81  33 2.81  28 2.81  36 2.81  30 2.81
                            31 2.81  37 2.82  48 2.82  41 2.82
  30  0.667  0.333  0.228-  17 2.79  22 2.79  18 2.79  32 2.81  34 2.81  28 2.81  35 2.81  29 2.81
                            25 2.81  46 2.82  42 2.82  41 2.82
  31  0.000  0.667  0.228-  19 2.79  24 2.79  20 2.79  35 2.81  27 2.81  33 2.81  32 2.81  29 2.81
                            36 2.81  43 2.82  44 2.82  48 2.82
  32  0.333  0.500  0.228-  17 2.79  21 2.79  19 2.79  30 2.81  34 2.81  31 2.81  27 2.81  33 2.81
                            28 2.81  39 2.82  46 2.82  44 2.82
  33  0.167  0.833  0.228-  13 2.79  20 2.79  21 2.79  29 2.81  25 2.81  26 2.81  31 2.81  32 2.81
                            34 2.81  37 2.82  44 2.82  45 2.82
  34  0.500  0.667  0.228-  21 2.79  22 2.79  23 2.79  32 2.81  30 2.81  35 2.81  36 2.81  26 2.81
                            33 2.81  46 2.82  47 2.82  45 2.82
  35  0.833  0.500  0.228-  14 2.79  24 2.79  22 2.79  27 2.81  31 2.81  30 2.81  34 2.81  25 2.81
                            36 2.81  42 2.82  43 2.82  47 2.82
  36  0.667  0.833  0.228-  16 2.79  23 2.79  24 2.79  26 2.81  28 2.81  29 2.81  34 2.81  31 2.81
                            35 2.81  40 2.82  47 2.82  48 2.82
  37  0.000  0.000  0.343-  38 2.81  48 2.81  45 2.81  41 2.81  42 2.81  44 2.81  25 2.82  29 2.82
                            33 2.82
  38  0.167  0.167  0.343-  37 2.81  42 2.81  45 2.81  40 2.81  43 2.81  39 2.81  25 2.82  26 2.82
                            27 2.82
  39  0.333  0.333  0.343-  46 2.81  44 2.81  41 2.81  43 2.81  40 2.81  38 2.81  32 2.82  28 2.82
                            27 2.82
  40  0.500  0.000  0.343-  41 2.81  45 2.81  38 2.81  48 2.81  47 2.81  39 2.81  26 2.82  28 2.82
                            36 2.82
  41  0.667  0.167  0.343-  40 2.81  39 2.81  48 2.81  37 2.81  46 2.81  42 2.81  28 2.82  29 2.82
                            30 2.82
  42  0.833  0.333  0.343-  43 2.81  38 2.81  47 2.81  46 2.81  37 2.81  41 2.81  35 2.82  25 2.82
                            30 2.82
  43  0.000  0.500  0.343-  42 2.81  44 2.81  39 2.81  47 2.81  38 2.81  48 2.81  27 2.82  31 2.82
                            35 2.82
  44  0.167  0.667  0.343-  43 2.81  39 2.81  48 2.81  46 2.81  37 2.81  45 2.81  31 2.82  32 2.82
                            33 2.82
  45  0.333  0.833  0.343-  40 2.81  38 2.81  47 2.81  37 2.81  46 2.81  44 2.81  26 2.82  34 2.82
                            33 2.82
  46  0.500  0.500  0.343-  39 2.81  47 2.81  44 2.81  42 2.81  45 2.81  41 2.81  30 2.82  32 2.82
                            34 2.82
  47  0.667  0.667  0.343-  46 2.81  45 2.81  42 2.81  43 2.81  40 2.81  48 2.81  34 2.82  35 2.82
                            36 2.82
  48  0.833  0.833  0.343-  37 2.81  41 2.81  44 2.81  40 2.81  43 2.81  47 2.81  29 2.82  31 2.82
                            36 2.82

  LATTYP: Found a hexagonal cell.
 ALAT       =     9.7196719493
 C/A-ratio  =     2.0576826157

  Lattice vectors:

 A1 = (   4.8598359747,  -8.4174828245,   0.0000000000)
 A2 = (  -9.7196719493,   0.0000000000,   0.0000000000)
 A3 = (   0.0000000000,   0.0000000000, -20.0000000000)

Analysis of symmetry for initial positions (statically):
 Subroutine PRICEL returns following result:

[...]

  12 primitive cells build up your supercell.

 Routine SETGRP: Setting up the symmetry group for a
 hexagonal supercell.

 Subroutine GETGRP returns: Found  6 space group operations
 (whereof  6 operations were pure point group operations)
 out of a pool of 24 trial point group operations.

The static configuration has the point symmetry C_3v.

Analysis of symmetry for dynamics (positions and initial velocities):
 Subroutine PRICEL returns following result:

[...]

The dynamic configuration has the point symmetry C_3v.

Analysis of constrained symmetry for selective dynamics:
 Subroutine PRICEL returns following result:

  LATTYP: Found a hexagonal cell.
 ALAT       =     2.8058276082
 C/A-ratio  =     7.1280216723

  Lattice vectors:

 A1 = (  -2.4299179873,  -1.4029138041,   0.0000000000)
 A2 = (   0.0000000000,   2.8058276082,   0.0000000000)
 A3 = (   0.0000000000,   0.0000000000, -20.0000000000)

  12 primitive cells build up your supercell.

 Routine SETGRP: Setting up the symmetry group for a
 hexagonal supercell.

 Subroutine GETGRP returns: Found  6 space group operations
 (whereof  6 operations were pure point group operations)
 out of a pool of 24 trial point group operations.

The constrained configuration has the point symmetry C_3v.

 irot  :   1
 isymop:   1   0   0
           0   1   0
           0   0   1

 gtrans:     0.0000000     0.0000000     0.0000000

 ptrans:     0.0000000     0.0000000     0.0000000
 rotmap:
 (   1->   1)  (   2->   2)  (   3->   3)  (   4->   4)  (   5->   5)
 (   6->   6)  (   7->   7)  (   8->   8)  (   9->   9)  (  10->  10)
 (  11->  11)  (  12->  12)  (  13->  13)  (  14->  14)  (  15->  15)
 (  16->  16)  (  17->  17)  (  18->  18)  (  19->  19)  (  20->  20)
 (  21->  21)  (  22->  22)  (  23->  23)  (  24->  24)  (  25->  25)
 (  26->  26)  (  27->  27)  (  28->  28)  (  29->  29)  (  30->  30)
 (  31->  31)  (  32->  32)  (  33->  33)  (  34->  34)  (  35->  35)
 (  36->  36)  (  37->  37)  (  38->  38)  (  39->  39)  (  40->  40)
 (  41->  41)  (  42->  42)  (  43->  43)  (  44->  44)  (  45->  45)
 (  46->  46)  (  47->  47)  (  48->  48)

[...]

 irot  :   6
 isymop:   1   1   0
           0  -1   0
           0   0   1

 gtrans:     0.0000000     0.0000000     0.0000000

[...]

 ptrans:     0.0000000     0.5000000     0.0000000
 rotmap:
 (   1->   7)  (   2->   3)  (   3->   5)  (   4->  10)  (   5->   6)
[...]
    264       3.6049      0.00000

 soft charge-density along one line, spin component           1
         0         1         2         3         4         5         6         7         8         9
 total charge-density along one line

------------------------ aborting loop because EDIFF is reached ----------------------------------------

  Grimme's potential added to compensate for missing vdW interactions

  Parameters for Grimme's potential:
         C6(Jnm^6/mol)     R0(A)
   Pt       7.000          1.750

  VDW_RADIUS =    40.000 A
  VDW_S6 =     0.750 A
  VDW_D =    20.000 A

  Number of pair interactions contributing to vdW energy:  189108
  Estimated vdW energy (eV):  -5.03281

  FORCE on cell =-STRESS in cart. coord.  units (eV):
  Direction    XX          YY          ZZ          XY          YZ          ZX
  Alpha Z  1338.46964  1338.46964  1338.46964
  Ewald  118112.39926118112.39926************     0.00000     0.00000     0.00000
  Hartree126838.95159126838.95159************     0.00000     0.00000     0.00000
  E(xc)   -2121.26654 -2121.26649 -2135.89134    -0.00004     0.00000     0.00000
  Local  ************************260190.03545     0.00232     0.00009    -0.00005
  n-local   217.00722   191.57969   174.73779   -22.02097    -3.90257    -2.25004
  augment  2503.00913  2503.01150  2582.52270    -0.00205    -0.00009     0.00005
  Kinetic  6911.92603  6898.43601  7116.60566   -11.68300     4.55618     2.63037
  Fock        0.00000     0.00000     0.00000     0.00000     0.00000     0.00000
  Total     -60.06944   -60.06944    -2.52287     0.00000     0.00000     0.00000
  in kB     -58.81665   -58.81665    -2.47025     0.00000     0.00000     0.00000

 VOLUME and BASIS-vectors are now :
  energy-cutoff  :      450.00
  volume of cell :     1636.30
      direct lattice vectors                 reciprocal lattice vectors
     9.719671949  0.000000000  0.000000000     0.102884131 -0.059400181  0.000000000
     4.859835975  8.417482825  0.000000000     0.000000000  0.118800361  0.000000000
     0.000000000  0.000000000 20.000000000     0.000000000  0.000000000  0.050000000

  length of vectors
     9.719671949  9.719671949 20.000000000     0.118800361  0.118800361  0.050000000

 FORCES acting on ions
    electron-ion (+dipol)            ewald-force                    non-local-force                 convergence-correction
   0.178E-06 -.308E-07 0.215E+04   -.331E-12 -.444E-13 -.215E+04   0.119E-17 -.163E-17 -.118E+01   0.587E-10 -.102E-09 0.457E-02
   -.258E-05 -.157E-05 0.215E+04   0.615E-10 0.360E-10 -.215E+04   0.119E-17 -.195E-17 -.118E+01   0.600E-10 -.978E-10 0.457E-02
   0.285E-05 0.152E-05 0.215E+04   -.618E-10 -.360E-10 -.215E+04   0.417E-17 -.184E-17 -.118E+01   0.546E-10 -.101E-09 0.457E-02
   0.178E-06 -.308E-07 0.215E+04   -.187E-12 -.666E-15 -.215E+04   0.434E-18 0.108E-17 -.118E+01   0.586E-10 -.102E-09 0.457E-02
   -.258E-05 -.157E-05 0.215E+04   0.618E-10 0.361E-10 -.215E+04   -.184E-17 -.651E-18 -.118E+01   0.598E-10 -.977E-10 0.457E-02
   0.285E-05 0.152E-05 0.215E+04   -.617E-10 -.360E-10 -.215E+04   -.146E-17 -.152E-17 -.118E+01   0.545E-10 -.101E-09 0.457E-02
   0.178E-06 -.308E-07 0.215E+04   -.376E-13 -.306E-13 -.215E+04   -.179E-17 0.976E-18 -.118E+01   0.587E-10 -.102E-09 0.457E-02
   -.258E-05 -.157E-05 0.215E+04   0.615E-10 0.361E-10 -.215E+04   -.108E-18 -.759E-18 -.118E+01   0.600E-10 -.978E-10 0.457E-02
   0.285E-05 0.152E-05 0.215E+04   -.615E-10 -.360E-10 -.215E+04   -.108E-18 -.152E-17 -.118E+01   0.546E-10 -.101E-09 0.457E-02
   0.178E-06 -.307E-07 0.215E+04   0.135E-12 0.375E-13 -.215E+04   0.260E-17 -.108E-18 -.118E+01   0.586E-10 -.102E-09 0.457E-02
   -.258E-05 -.157E-05 0.215E+04   0.618E-10 0.361E-10 -.215E+04   -.488E-18 0.108E-18 -.118E+01   0.598E-10 -.977E-10 0.457E-02
   0.285E-05 0.152E-05 0.215E+04   -.614E-10 -.358E-10 -.215E+04   0.434E-18 -.152E-17 -.118E+01   0.546E-10 -.101E-09 0.457E-02
   0.237E-04 0.214E-05 0.722E+03   0.467E-10 -.847E-11 -.722E+03   -.867E-18 -.239E-17 -.284E+00   0.637E-09 -.846E-09 0.454E-01
   -.141E-04 -.194E-04 0.722E+03   -.167E-10 -.456E-10 -.722E+03   -.260E-17 -.108E-17 -.284E+00   0.414E-09 -.975E-09 0.454E-01
   -.995E-05 0.172E-04 0.722E+03   -.309E-10 0.539E-10 -.722E+03   -.217E-17 0.000E+00 -.284E+00   0.413E-09 -.716E-09 0.454E-01
   0.237E-04 0.214E-05 0.722E+03   0.469E-10 -.846E-11 -.722E+03   0.520E-17 -.455E-17 -.284E+00   0.637E-09 -.846E-09 0.454E-01
   -.141E-04 -.194E-04 0.722E+03   -.165E-10 -.456E-10 -.722E+03   -.867E-18 0.282E-17 -.284E+00   0.414E-09 -.975E-09 0.454E-01
   -.995E-05 0.172E-04 0.722E+03   -.304E-10 0.539E-10 -.722E+03   -.564E-17 -.867E-17 -.284E+00   0.413E-09 -.716E-09 0.454E-01
   0.237E-04 0.214E-05 0.722E+03   0.470E-10 -.843E-11 -.722E+03   0.000E+00 0.585E-17 -.284E+00   0.638E-09 -.846E-09 0.454E-01
   -.141E-04 -.194E-04 0.722E+03   -.164E-10 -.456E-10 -.722E+03   -.802E-17 0.000E+00 -.284E+00   0.414E-09 -.975E-09 0.454E-01
   -.995E-05 0.172E-04 0.722E+03   -.309E-10 0.539E-10 -.722E+03   0.607E-17 -.217E-17 -.284E+00   0.413E-09 -.716E-09 0.454E-01
   0.237E-04 0.214E-05 0.722E+03   0.472E-10 -.850E-11 -.722E+03   0.651E-18 -.108E-17 -.284E+00   0.637E-09 -.846E-09 0.454E-01
   -.141E-04 -.194E-04 0.722E+03   -.162E-10 -.455E-10 -.722E+03   0.434E-18 -.260E-17 -.284E+00   0.414E-09 -.975E-09 0.454E-01
   -.995E-05 0.172E-04 0.722E+03   -.304E-10 0.538E-10 -.722E+03   0.000E+00 -.304E-17 -.284E+00   0.413E-09 -.716E-09 0.454E-01
   0.133E-04 0.181E-04 -.726E+03   0.162E-10 0.454E-10 0.725E+03   -.781E-17 -.499E-17 0.393E+00   0.484E-09 -.126E-08 0.529E-01
   -.222E-04 -.207E-05 -.726E+03   -.473E-10 0.821E-11 0.725E+03   0.000E+00 -.564E-17 0.393E+00   0.851E-09 -.105E-08 0.529E-01
   0.912E-05 -.158E-04 -.726E+03   0.306E-10 -.536E-10 0.725E+03   0.000E+00 0.304E-17 0.393E+00   0.482E-09 -.836E-09 0.529E-01
   0.133E-04 0.181E-04 -.726E+03   0.166E-10 0.454E-10 0.725E+03   -.260E-17 -.119E-16 0.393E+00   0.484E-09 -.126E-08 0.529E-01
   -.222E-04 -.207E-05 -.726E+03   -.472E-10 0.820E-11 0.725E+03   -.477E-17 -.694E-17 0.393E+00   0.851E-09 -.105E-08 0.529E-01
   0.912E-05 -.158E-04 -.726E+03   0.309E-10 -.536E-10 0.725E+03   -.217E-17 -.434E-17 0.393E+00   0.482E-09 -.836E-09 0.529E-01
   0.133E-04 0.181E-04 -.726E+03   0.162E-10 0.454E-10 0.725E+03   0.195E-17 0.390E-17 0.393E+00   0.484E-09 -.126E-08 0.529E-01
   -.222E-04 -.207E-05 -.726E+03   -.470E-10 0.818E-11 0.725E+03   -.239E-17 0.282E-17 0.393E+00   0.851E-09 -.105E-08 0.529E-01
   0.912E-05 -.158E-04 -.726E+03   0.310E-10 -.537E-10 0.725E+03   0.759E-17 -.217E-17 0.393E+00   0.483E-09 -.836E-09 0.529E-01
   0.133E-04 0.181E-04 -.726E+03   0.166E-10 0.454E-10 0.725E+03   0.239E-17 -.260E-17 0.393E+00   0.484E-09 -.126E-08 0.529E-01
   -.222E-04 -.207E-05 -.726E+03   -.468E-10 0.819E-11 0.725E+03   -.867E-18 0.130E-17 0.393E+00   0.851E-09 -.105E-08 0.529E-01
   0.912E-05 -.158E-04 -.726E+03   0.312E-10 -.536E-10 0.725E+03   -.694E-17 -.108E-16 0.393E+00   0.482E-09 -.836E-09 0.529E-01
   -.119E-06 0.392E-08 -.215E+04   -.313E-12 -.711E-13 0.215E+04   -.179E-17 0.195E-17 0.111E+01   -.166E-09 0.288E-09 0.120E-01
   -.276E-05 -.151E-05 -.215E+04   0.615E-10 0.360E-10 0.215E+04   -.531E-17 0.217E-18 0.111E+01   -.162E-09 0.283E-09 0.120E-01
   0.277E-05 0.164E-05 -.215E+04   -.619E-10 -.360E-10 0.215E+04   -.255E-17 0.152E-17 0.111E+01   -.164E-09 0.281E-09 0.120E-01
   -.119E-06 0.392E-08 -.215E+04   -.171E-12 0.000E+00 0.215E+04   0.325E-18 0.412E-17 0.111E+01   -.166E-09 0.288E-09 0.120E-01
   -.276E-05 -.151E-05 -.215E+04   0.619E-10 0.360E-10 0.215E+04   -.163E-18 -.651E-18 0.111E+01   -.162E-09 0.283E-09 0.120E-01
   0.277E-05 0.164E-05 -.215E+04   -.617E-10 -.360E-10 0.215E+04   -.287E-17 0.325E-17 0.111E+01   -.164E-09 0.281E-09 0.120E-01
   -.119E-06 0.392E-08 -.215E+04   -.925E-14 -.284E-13 0.215E+04   0.125E-17 0.651E-18 0.111E+01   -.166E-09 0.288E-09 0.120E-01
   -.276E-05 -.151E-05 -.215E+04   0.616E-10 0.360E-10 0.215E+04   0.542E-18 -.108E-18 0.111E+01   -.162E-09 0.283E-09 0.120E-01
   0.277E-05 0.164E-05 -.215E+04   -.616E-10 -.360E-10 0.215E+04   0.705E-18 0.228E-17 0.111E+01   -.164E-09 0.281E-09 0.120E-01
   -.119E-06 0.392E-08 -.215E+04   0.145E-12 0.107E-12 0.215E+04   -.488E-17 0.173E-17 0.111E+01   -.166E-09 0.288E-09 0.120E-01
   -.276E-05 -.151E-05 -.215E+04   0.618E-10 0.361E-10 0.215E+04   -.618E-17 0.260E-17 0.111E+01   -.162E-09 0.283E-09 0.120E-01
   0.277E-05 0.164E-05 -.215E+04   -.614E-10 -.359E-10 0.215E+04   -.173E-17 0.434E-18 0.111E+01   -.164E-09 0.281E-09 0.120E-01
   0.961E-06 0.992E-06 -.178E+01   -.812E-13 -.314E-13 -.728E-11   -.419E-16 -.466E-16 0.517E+00   0.118E-07 -.205E-07 0.138E+01

 POSITION                                       TOTAL-FORCE (eV/Angst)
      0.00000      0.00000      0.00000         0.000000      0.000000     -0.044636
      2.42992      1.40291      0.00000         0.000000      0.000000     -0.044636
      4.85984      2.80583      0.00000         0.000000      0.000000     -0.044636
      4.85984      0.00000      0.00000         0.000000      0.000000     -0.044636
      7.28975      1.40291      0.00000         0.000000      0.000000     -0.044636
      9.71967      2.80583      0.00000         0.000000      0.000000     -0.044636
      2.42992      4.20874      0.00000         0.000000      0.000000     -0.044636
      4.85984      5.61166      0.00000         0.000000      0.000000     -0.044636
      7.28975      7.01457      0.00000         0.000000      0.000000     -0.044636
      7.28975      4.20874      0.00000         0.000000      0.000000     -0.044636
      9.71967      5.61166      0.00000         0.000000      0.000000     -0.044636
     12.14959      7.01457      0.00000         0.000000      0.000000     -0.044636
      1.61995      0.00000      2.29095         0.000000      0.000000      0.113050
      1.61995      2.80583      2.29095         0.000000      0.000000      0.113050
      4.04986      1.40291      2.29095         0.000000      0.000000      0.113050
      6.47978      0.00000      2.29095         0.000000      0.000000      0.113050
      6.47978      2.80583      2.29095         0.000000      0.000000      0.113050
      8.90970      1.40291      2.29095         0.000000      0.000000      0.113050
      4.04986      4.20874      2.29095         0.000000      0.000000      0.113050
      4.04986      7.01457      2.29095         0.000000      0.000000      0.113050
      6.47978      5.61166      2.29095         0.000000      0.000000      0.113050
      8.90970      4.20874      2.29095         0.000000      0.000000      0.113050
      8.90970      7.01457      2.29095         0.000000      0.000000      0.113050
     11.33962      5.61166      2.29095         0.000000      0.000000      0.113050
      0.80997      1.40291      4.56160         0.000000      0.000000     -0.019821
      3.23989      0.00000      4.56160         0.000000      0.000000     -0.019821
      3.23989      2.80583      4.56160         0.000000      0.000000     -0.019821
      5.66981      1.40291      4.56160         0.000000      0.000000     -0.019821
      8.09973      0.00000      4.56160         0.000000      0.000000     -0.019821
      8.09973      2.80583      4.56160         0.000000      0.000000     -0.019821
      3.23989      5.61166      4.56160         0.000000      0.000000     -0.019821
      5.66981      4.20874      4.56160         0.000000      0.000000     -0.019821
      5.66981      7.01457      4.56160         0.000000      0.000000     -0.019821
      8.09973      5.61166      4.56160         0.000000      0.000000     -0.019821
     10.52964      4.20874      4.56160         0.000000      0.000000     -0.019821
     10.52964      7.01457      4.56160         0.000000      0.000000     -0.019821
      0.00000      0.00000      6.86834         0.000000      0.000000     -0.048593
      2.42992      1.40291      6.86834         0.000000      0.000000     -0.048593
      4.85984      2.80583      6.86834         0.000000      0.000000     -0.048593
      4.85984      0.00000      6.86834         0.000000      0.000000     -0.048593
      7.28975      1.40291      6.86834         0.000000      0.000000     -0.048593
      9.71967      2.80583      6.86834         0.000000      0.000000     -0.048593
      2.42992      4.20874      6.86834         0.000000      0.000000     -0.048593
      4.85984      5.61166      6.86834         0.000000      0.000000     -0.048593
      7.28975      7.01457      6.86834         0.000000      0.000000     -0.048593
      7.28975      4.20874      6.86834         0.000000      0.000000     -0.048593
      9.71967      5.61166      6.86834         0.000000      0.000000     -0.048593
     12.14959      7.01457      6.86834         0.000000      0.000000     -0.048593
    total drift:                                0.000001      0.000001      0.117548

  FREE ENERGIE OF THE ION-ELECTRON SYSTEM (eV)
  free  energy   TOTEN  =      -282.78969625 eV

  energy  without entropy=     -282.70598815  energy(sigma->0) =     -282.74784220

 Quasi-Newton relaxation of ions (Broydens 2nd method)
  g(Force)  = 0.478E-03   g(Stress)= 0.000E+00

 Reset! Starting new Quasi-Newton update for ions

[...]

  free energy =  -0.277756753963E+03  energy without entropy=  -0.277673086030E+03

[...]

 d Force = 0.4672553E-03[ 0.456E-03, 0.478E-03]  d Energy = 0.4584565E-03 0.880E-05
 d Force =-0.2061009E+02[-0.206E+02,-0.206E+02]  d Ewald  =-0.2061009E+02 0.100E-07

[...]

 retain information from N=  1 steps
 eigenvalues of (default step * inverse Hessian matrix)
  average eigenvalue of G=   7.8901
 eigenvalue spectrum of G is  7.8901

[...]

 FEWALD executed in parallel

[...]

 eigenvalue-minimisations  :  1617
 total energy-change (2. order) :-0.4414737E-03  (-0.1469765E-03)
 number of electron     480.0000028 magnetization
 augmentation part      149.2003104 magnetization

[...]

 eigenvalues of (default mixing * dielectric matrix)
  average eigenvalue GAMMA=   0.9161
  2.3492  1.3008  1.3008  0.8267  0.0741  0.2411  0.3201

[...]

----------------------------------------- Iteration    5(   9)  ---------------------------------------

 eigenvalue-minimisations  :   920
 total energy-change (2. order) : 0.4150636E-05  (-0.2923727E-05)
 number of electron     480.0000028 magnetization
 augmentation part      149.1996038 magnetization

 DIPCOR: dipole corrections for dipol
 direction  3 min pos   146,
 dipolmoment           0.000000      0.000000      0.001225 electrons x Angstroem
 Tr[quadrupol]     -7944.149001

 energy correction for charged system         0.000000 eV
 dipol+quadrupol energy correction            0.000000 eV
 added-field ion interaction          0.000266 eV  (added to PSCEN)

  free energy =  -0.277746632940E+03  energy without entropy=  -0.277663614199E+03

------------------------ aborting loop because EDIFF is reached ----------------------------------------

  Number of pair interactions contributing to vdW energy:  189036
  Estimated vdW energy (eV):  -5.05049

  FORCE on cell =-STRESS in cart. coord.  units (eV):
  Direction    XX          YY          ZZ          XY          YZ          ZX
  Alpha Z  1338.46964  1338.46964  1338.46964
  Ewald  118777.22140118777.22140************     0.00000     0.00000     0.00000
  Hartree127494.30719127494.30719************     0.00000     0.00000     0.00000
  E(xc)   -2121.89000 -2121.88996 -2136.38520    -0.00004     0.00000     0.00000
  Local  ************************261523.49241     0.00232     0.00009    -0.00005
  n-local   219.60612   194.26863   181.00912   -21.94490    -3.95998    -2.28312
  augment  2503.53935  2503.54172  2580.28844    -0.00206    -0.00009     0.00005
  Kinetic  6914.62938  6901.47343  7114.21783   -11.39328     4.16228     2.40330
  Fock        0.00000     0.00000     0.00000     0.00000     0.00000     0.00000
  Total     -57.78485   -57.78485     1.03853     0.00000     0.00000     0.00000
  in kB     -56.57971   -56.57971     1.01687     0.00000     0.00000     0.00000

  FREE ENERGIE OF THE ION-ELECTRON SYSTEM (eV)
  free  energy   TOTEN  =      -282.79712138 eV

  energy  without entropy=     -282.71410264  energy(sigma->0) =     -282.75561201

 d Force = 0.1166253E-02[ 0.757E-04, 0.226E-02]  d Energy = 0.1529120E-02-0.363E-03
 d Force =-0.2594920E+03[-0.260E+03,-0.259E+03]  d Ewald  =-0.2594921E+03 0.114E-04

 Quasi-Newton relaxation of ions (Broydens 2nd method)
  g(Force)  = 0.227E-04   g(Stress)= 0.000E+00

 retain information from N=  1 steps
 eigenvalues of (default step * inverse Hessian matrix)
  average eigenvalue of G=  24.9803
 eigenvalue spectrum of G is 24.9803

 reached required accuracy - stopping structural energy minimisation