 vasp.5.4.4.18Apr17-6-g9f103f2a35 (build Jun 30 2017 19:19:18) complex

 executed on         MareNostrum4 date 2022.04.12  10:59:04

 INCAR:
 POTCAR:    PAW_PBE Ag 02Apr2005
 POTCAR:    PAW_PBE O 08Apr2002
 POTCAR:    PAW_PBE C 08Apr2002
 POTCAR:    PAW_PBE N 08Apr2002
 POTCAR:    PAW_PBE H 15Jun2001

 POTCAR:    PAW_PBE Ag 02Apr2005

[...]

 POTCAR:    PAW_PBE N 08Apr2002

 POTCAR:    PAW_PBE H 15Jun2001

 Optimization of the real space projectors (new method)

 maximal supplied QI-value         = 15.12
 optimisation between [QCUT,QGAM] = [ 10.73, 21.62] = [ 32.26,130.87] Ry
 Optimized for a Real-space Cutoff    1.42 Angstroem

   l    n(q)    QCUT    max X(q) W(low)/X(q) W(high)/X(q)  e(spline)
   2      8    10.734    53.897    0.46E-03    0.48E-03    0.17E-06
   2      8    10.734    52.416    0.47E-03    0.50E-03    0.17E-06
   0      9    10.734   122.045    0.16E-03    0.13E-03    0.44E-07
   0      9    10.734    73.629    0.16E-03    0.13E-03    0.43E-07
   1      9    10.734    15.255    0.66E-04    0.32E-03    0.15E-06
   1      9    10.734     9.562    0.55E-04    0.26E-03    0.12E-06
 Optimization of the real space projectors (new method)

[...]

   l    n(q)    QCUT    max X(q) W(low)/X(q) W(high)/X(q)  e(spline)
   0      8    10.807    79.467    0.34E-03    0.68E-03    0.21E-06
   0      8    10.807    66.151    0.34E-03    0.67E-03    0.21E-06
   1      7    10.807    14.030    0.45E-03    0.13E-02    0.11E-05
   1      7    10.807     9.831    0.48E-03    0.13E-02    0.11E-05
 Optimization of the real space projectors (new method)

 maximal supplied QI-value         = 34.20
 optimisation between [QCUT,QGAM] = [ 10.60, 21.55] = [ 31.48,130.03] Ry
 Optimized for a Real-space Cutoff    1.23 Angstroem

   l    n(q)    QCUT    max X(q) W(low)/X(q) W(high)/X(q)  e(spline)
   0      8    10.603    19.460    0.37E-03    0.59E-03    0.23E-06
   0      8    10.603    12.209    0.35E-03    0.56E-03    0.22E-06
   1      7    10.603     4.655    0.70E-04    0.28E-03    0.29E-06
  PAW_PBE Ag 02Apr2005                  :
  PAW_PBE O 08Apr2002                   :
  PAW_PBE C 08Apr2002                   :
  PAW_PBE N 08Apr2002                   :
  PAW_PBE H 15Jun2001                   :

 POSCAR: Ag  O  C  N  H
  positions in direct lattice
  velocities in cartesian coordinates
 exchange correlation table for  LEXCH =        8
   RHO(1)=    0.500       N(1)  =     2000
   RHO(2)=  100.500       N(2)  =     4000

 ion  position               nearest neighbor table
   1  0.000  0.000  0.000-  28 2.89   4 2.89   3 2.89  35 2.89  10 2.89   2 2.89  70 2.89  40 2.89
                            47 2.89
   2  1.000  0.167  0.000-  27 2.89   8 2.89   5 2.89  28 2.89   3 2.89   1 2.89  39 2.89  61 2.89
                            40 2.89
   3  0.167  0.167  0.000-  14 2.89  17 2.89   8 2.89   2 2.89   1 2.89   4 2.89  38 2.89  40 2.89
                            37 2.89
   4  0.167  0.000  0.000-  13 2.89  14 2.89   1 2.89  11 2.89  10 2.89   3 2.89  37 2.89  47 2.89
                            46 2.89
   5  0.000  0.333  0.000-   8 2.89  27 2.89   2 2.89  32 2.89   6 2.89   7 2.89  62 2.89  44 2.89
                            39 2.89
   6  0.000  0.500  0.000-  12 2.89   7 2.89   9 2.89  31 2.89   5 2.89  32 2.89  43 2.89  65 2.89
                            44 2.89
   7  0.167  0.500  0.000-   6 2.89  18 2.89  21 2.89  12 2.89   5 2.89   8 2.89  42 2.89  44 2.89
                            41 2.89
   8  0.167  0.333  0.000-   5 2.89   2 2.89   3 2.89  17 2.89  18 2.89   7 2.89  39 2.89  41 2.89
                            38 2.89
   9  0.000  0.667  0.000-  12 2.89  36 2.89  31 2.89  11 2.89   6 2.89  10 2.89  66 2.89  48 2.89
                            43 2.89
  10  1.000  0.833  0.000-  36 2.89  35 2.89   9 2.89  11 2.89   1 2.89   4 2.89  69 2.89  47 2.89
                            48 2.89
  11  0.167  0.833  0.000-  22 2.89   9 2.89  12 2.89  10 2.89   4 2.89  13 2.89  46 2.89  48 2.89
                            45 2.89
  12  0.167  0.667  0.000-   6 2.89   9 2.89  22 2.89  11 2.89   7 2.89  21 2.89  43 2.89  45 2.89
                            42 2.89
  13  0.333  0.000  0.000-   4 2.89  16 2.89  15 2.89  22 2.89  11 2.89  14 2.89  46 2.89  52 2.89
                            59 2.89
  14  0.333  0.167  0.000-   3 2.89  17 2.89   4 2.89  20 2.89  15 2.89  13 2.89  51 2.89  37 2.89
                            52 2.89
  15  0.500  0.167  0.000-  26 2.89  20 2.89  29 2.89  14 2.89  13 2.89  16 2.89  50 2.89  52 2.89
                            49 2.89
  16  0.500  0.000  0.000-  25 2.89  26 2.89  13 2.89  23 2.89  22 2.89  15 2.89  49 2.89  59 2.89
                            58 2.89
  17  0.333  0.333  0.000-  14 2.89   3 2.89   8 2.89  20 2.89  19 2.89  18 2.89  38 2.89  56 2.89
                            51 2.89
  18  0.333  0.500  0.000-   7 2.89  21 2.89  24 2.89  19 2.89   8 2.89  17 2.89  55 2.89  41 2.89
                            56 2.89
  19  0.500  0.500  0.000-  30 2.89  24 2.89  33 2.89  18 2.89  17 2.89  20 2.89  54 2.89  56 2.89
                            53 2.89
  20  0.500  0.333  0.000-  29 2.89  15 2.89  30 2.89  14 2.89  17 2.89  19 2.89  53 2.89  51 2.89
                            50 2.89
  21  0.333  0.667  0.000-  18 2.89  23 2.89   7 2.89  22 2.89  12 2.89  24 2.89  42 2.89  60 2.89
                            55 2.89
  22  0.333  0.833  0.000-  11 2.89  12 2.89  21 2.89  23 2.89  13 2.89  16 2.89  45 2.89  59 2.89
                            60 2.89
  23  0.500  0.833  0.000-  34 2.89  21 2.89  24 2.89  22 2.89  25 2.89  16 2.89  58 2.89  60 2.89
                            57 2.89
  24  0.500  0.667  0.000-  34 2.89  33 2.89  19 2.89  23 2.89  18 2.89  21 2.89  57 2.89  55 2.89
                            54 2.89
  25  0.667  0.000  0.000-  16 2.89  28 2.89  23 2.89  27 2.89  34 2.89  26 2.89  58 2.89  64 2.89
                            71 2.89
  26  0.667  0.167  0.000-  15 2.89  32 2.89  29 2.89  16 2.89  27 2.89  25 2.89  63 2.89  49 2.89
                            64 2.89
  27  0.833  0.167  0.000-   2 2.89   5 2.89  32 2.89  26 2.89  25 2.89  28 2.89  62 2.89  64 2.89
                            61 2.89
  28  0.833  0.000  0.000-   1 2.89   2 2.89  25 2.89  35 2.89  34 2.89  27 2.89  61 2.89  71 2.89
                            70 2.89
  29  0.667  0.333  0.000-  20 2.89  32 2.89  15 2.89  26 2.89  31 2.89  30 2.89  50 2.89  68 2.89
                            63 2.89
  30  0.667  0.500  0.000-  19 2.89  33 2.89  20 2.89  36 2.89  31 2.89  29 2.89  67 2.89  53 2.89
                            68 2.89
  31  0.833  0.500  0.000-   9 2.89  36 2.89  30 2.89   6 2.89  32 2.89  29 2.89  66 2.89  68 2.89
                            65 2.89
  32  0.833  0.333  0.000-  29 2.89  26 2.89  27 2.89   5 2.89  31 2.89   6 2.89  63 2.89  65 2.89
                            62 2.89
  33  0.667  0.667  0.000-  24 2.89  19 2.89  30 2.89  35 2.89  34 2.89  36 2.89  54 2.89  72 2.89
                            67 2.89
  34  0.667  0.833  0.000-  24 2.89  23 2.89  33 2.89  35 2.89  25 2.89  28 2.89  57 2.89  71 2.89
                            72 2.89
  35  0.833  0.833  0.000-  10 2.89  33 2.89  36 2.89  34 2.89   1 2.89  28 2.89  70 2.89  72 2.89
                            69 2.89
  36  0.833  0.667  0.000-  10 2.89   9 2.89  31 2.89  35 2.89  30 2.89  33 2.89  69 2.89  67 2.89
                            66 2.89
  37  0.222  0.111  0.107-  52 2.89  51 2.89  38 2.89  40 2.89  46 2.89  47 2.89  14 2.89   4 2.89
                             3 2.89  76 2.90  74 2.90  75 2.91
  38  0.222  0.278  0.107-  51 2.89  37 2.89  56 2.89  40 2.89  39 2.89  41 2.89   3 2.89  17 2.89
                             8 2.89  79 2.89  73 2.90  76 2.91
  39  0.056  0.278  0.107-  62 2.89  61 2.89  40 2.89  38 2.89  44 2.89  41 2.89   2 2.89   8 2.89
                             5 2.89  73 2.90  78 2.90 100 2.91
  40  0.056  0.111  0.107-  61 2.89  39 2.89  70 2.89  38 2.89  37 2.89  47 2.89   1 2.89   3 2.89
                             2 2.89  73 2.90  74 2.90  99 2.91
  41  0.222  0.444  0.107-  79 2.89  56 2.89  55 2.89  42 2.89  44 2.89  39 2.89  38 2.89  18 2.89
                             8 2.89   7 2.89  80 2.90  78 2.90
  42  0.222  0.611  0.107-  80 2.89  55 2.89  41 2.89  60 2.89  44 2.89  43 2.89  45 2.89   7 2.89
                            21 2.89  12 2.89  77 2.92  83 2.92
  43  0.056  0.611  0.107-  66 2.89  65 2.89  44 2.89  42 2.89  48 2.89  45 2.89   6 2.89  12 2.89
                             9 2.89  77 2.91 104 2.91  82 2.92
  44  0.056  0.444  0.107-  65 2.89  43 2.89  62 2.89  42 2.89  41 2.89  39 2.89   5 2.89   7 2.89
                             6 2.89  78 2.89  77 2.92 103 2.92
  45  0.222  0.778  0.107-  60 2.89  59 2.89  46 2.89  48 2.89  42 2.89  43 2.89  22 2.89  12 2.89
                            11 2.89  83 2.91  82 2.92  84 2.92
  46  0.222  0.944  0.107-  59 2.89  45 2.89  52 2.89  48 2.89  47 2.89  37 2.89  13 2.89  11 2.89
                             4 2.89  75 2.91  81 2.91  84 2.92
  47  0.056  0.944  0.107-  70 2.89  69 2.89  48 2.89  46 2.89  40 2.89  37 2.89  10 2.89   4 2.89
                             1 2.89 108 2.90  74 2.90  81 2.91
  48  0.056  0.778  0.107-  69 2.89  47 2.89  66 2.89  46 2.89  45 2.89  43 2.89  11 2.89   9 2.89
                            10 2.89 107 2.90  81 2.91  82 2.92
  49  0.556  0.111  0.107-  64 2.89  63 2.89  50 2.89  52 2.89  58 2.89  59 2.89  26 2.89  16 2.89
                            15 2.89  86 2.91  87 2.91  88 2.92
  50  0.556  0.278  0.107-  63 2.89  49 2.89  68 2.89  52 2.89  51 2.89  53 2.89  15 2.89  29 2.89
                            20 2.89  91 2.91  88 2.92  85 2.92
  51  0.389  0.278  0.107-  38 2.89  37 2.89  52 2.89  50 2.89  53 2.89  56 2.89  14 2.89  20 2.89
                            17 2.89  76 2.90  90 2.92  85 2.92
  52  0.389  0.111  0.107-  37 2.89  51 2.89  46 2.89  50 2.89  49 2.89  59 2.89  13 2.89  15 2.89
                            14 2.89  75 2.91  86 2.91  85 2.92
  53  0.556  0.444  0.107-  68 2.89  67 2.89  54 2.89  56 2.89  51 2.89  50 2.89  30 2.89  20 2.89
                            19 2.89  92 2.91  91 2.91  90 2.92
  54  0.556  0.611  0.107-  67 2.89  53 2.89  72 2.89  56 2.89  55 2.89  57 2.89  19 2.89  33 2.89
                            24 2.89  89 2.90  92 2.90  95 2.90
  55  0.389  0.611  0.107-  42 2.89  41 2.89  56 2.89  54 2.89  60 2.89  57 2.89  18 2.89  24 2.89
                            21 2.89  89 2.89  80 2.90  94 2.91
  56  0.389  0.444  0.107-  41 2.89  55 2.89  38 2.89  54 2.89  53 2.89  51 2.89  17 2.89  19 2.89
                            18 2.89  79 2.89  89 2.90  90 2.92
  57  0.556  0.778  0.107-  72 2.89  71 2.89  58 2.89  60 2.89  54 2.89  55 2.89  34 2.89  24 2.89
                            23 2.89  95 2.89  94 2.91  96 2.92
  58  0.556  0.944  0.107-  71 2.89  57 2.89  64 2.89  60 2.89  59 2.89  49 2.89  25 2.89  23 2.89
                            16 2.89  96 2.91  87 2.92  93 2.92
  59  0.389  0.944  0.107-  46 2.89  45 2.89  60 2.89  58 2.89  52 2.89  49 2.89  22 2.89  16 2.89
                            13 2.89  93 2.91  86 2.91  84 2.92
  60  0.389  0.778  0.107-  45 2.89  59 2.89  42 2.89  58 2.89  57 2.89  55 2.89  23 2.89  21 2.89
[...]
   0.793E+01 -.107E+02 0.260E+04   -.796E+01 0.107E+02 -.259E+04   0.239E-01 -.155E-01 -.164E+01   -.368E-04 -.554E-04 0.504E-02
   0.374E+01 -.671E+01 0.259E+04   -.373E+01 0.671E+01 -.259E+04   -.113E-01 0.162E-02 -.165E+01   -.185E-04 0.119E-03 0.477E-02
   -.372E+01 0.408E+01 0.259E+04   0.373E+01 -.410E+01 -.259E+04   -.154E-01 0.144E-01 -.162E+01   0.262E-04 0.528E-04 0.475E-02
   0.360E+01 -.221E+00 0.259E+04   -.360E+01 0.226E+00 -.259E+04   0.803E-02 -.691E-02 -.165E+01   0.324E-04 0.956E-04 0.478E-02
   0.397E+01 -.722E+01 0.259E+04   -.399E+01 0.722E+01 -.259E+04   0.117E-01 -.511E-02 -.163E+01   0.809E-04 0.120E-03 0.484E-02
   -.110E+02 0.932E+01 0.259E+04   0.110E+02 -.931E+01 -.259E+04   -.115E-01 -.942E-02 -.159E+01   0.693E-04 -.398E-04 0.488E-02
   -.106E+02 0.343E+01 0.260E+04   0.106E+02 -.343E+01 -.259E+04   0.152E-01 -.129E-02 -.167E+01   0.924E-04 -.490E-04 0.504E-02
   -.116E+02 0.335E+01 0.259E+04   0.116E+02 -.335E+01 -.259E+04   -.231E-01 0.257E-02 -.158E+01   0.123E-03 -.989E-05 0.487E-02
   -.393E+01 0.474E+01 0.259E+04   0.396E+01 -.474E+01 -.259E+04   -.231E-01 -.484E-02 -.163E+01   0.573E-04 0.325E-04 0.478E-02
   -.273E+01 -.832E+01 0.260E+04   0.275E+01 0.833E+01 -.260E+04   -.137E-01 -.439E-02 -.166E+01   0.665E-04 -.213E-04 0.504E-02
   0.442E+01 -.133E+02 0.259E+04   -.442E+01 0.133E+02 -.259E+04   0.155E-03 -.232E-01 -.163E+01   0.330E-04 0.931E-04 0.492E-02
   -.311E+01 -.950E+01 0.259E+04   0.313E+01 0.951E+01 -.259E+04   -.167E-01 -.728E-02 -.164E+01   0.130E-03 0.851E-04 0.491E-02
   -.111E+02 -.395E+01 0.259E+04   0.111E+02 0.395E+01 -.259E+04   0.436E-02 -.175E-02 -.162E+01   0.154E-03 0.925E-05 0.493E-02
   -.323E+01 0.184E+02 0.931E+03   0.323E+01 -.184E+02 -.930E+03   0.560E-02 -.349E-02 -.469E+00   -.322E-04 0.975E-05 0.141E-01
   0.123E+02 0.169E+02 0.946E+03   -.123E+02 -.169E+02 -.946E+03   0.215E-01 -.182E-01 -.520E+00   -.173E-04 -.442E-04 0.141E-01
   0.203E+02 0.733E+01 0.927E+03   -.203E+02 -.734E+01 -.926E+03   -.384E-02 0.255E-02 -.462E+00   0.336E-04 0.238E-04 0.141E-01
   0.897E+01 0.759E+01 0.927E+03   -.898E+01 -.758E+01 -.926E+03   0.670E-02 -.220E-01 -.475E+00   0.702E-04 0.597E-04 0.141E-01
   0.248E+02 0.576E+00 0.945E+03   -.248E+02 -.586E+00 -.944E+03   -.250E-02 0.576E-02 -.510E+00   -.463E-04 -.495E-04 0.141E-01
   0.200E+02 -.115E+02 0.925E+03   -.199E+02 0.115E+02 -.925E+03   -.288E-01 0.191E-01 -.449E+00   -.379E-04 -.988E-04 0.141E-01
   -.343E+01 -.299E+01 0.916E+03   0.345E+01 0.297E+01 -.915E+03   -.170E-01 0.165E-01 -.451E+00   -.747E-06 -.275E-04 0.141E-01
   0.156E+02 0.647E+00 0.920E+03   -.155E+02 -.660E+00 -.920E+03   -.325E-01 0.199E-01 -.455E+00   0.208E-04 -.171E-04 0.141E-01
   0.167E+01 -.604E+01 0.911E+03   -.166E+01 0.603E+01 -.911E+03   -.168E-01 0.204E-01 -.454E+00   -.853E-04 -.431E-04 0.141E-01
   -.877E+01 0.806E+01 0.914E+03   0.877E+01 -.806E+01 -.914E+03   0.102E-01 -.171E-01 -.444E+00   -.734E-04 0.539E-04 0.141E-01
   -.827E+01 0.825E+00 0.924E+03   0.826E+01 -.820E+00 -.923E+03   0.166E-01 -.116E-01 -.461E+00   0.599E-04 0.739E-04 0.141E-01
   -.152E+02 -.340E+01 0.919E+03   0.152E+02 0.340E+01 -.918E+03   0.171E-01 0.450E-02 -.461E+00   0.128E-04 -.155E-05 0.141E-01
   -.780E+01 0.912E+01 0.912E+03   0.780E+01 -.912E+01 -.911E+03   0.641E-03 -.355E-02 -.417E+00   -.564E-04 0.758E-04 0.140E-01
   -.176E+02 0.227E+02 0.933E+03   0.177E+02 -.227E+02 -.933E+03   -.213E-01 -.561E-02 -.418E+00   -.339E-04 0.160E-05 0.141E-01
   -.737E+01 0.227E+02 0.947E+03   0.737E+01 -.227E+02 -.946E+03   0.104E-01 0.624E-02 -.485E+00   -.611E-04 -.540E-04 0.141E-01
   -.112E+02 0.184E+02 0.922E+03   0.112E+02 -.184E+02 -.921E+03   -.395E-02 0.196E-01 -.414E+00   -.967E-04 0.209E-04 0.141E-01
   -.119E+02 0.128E+02 0.960E+03   0.119E+02 -.129E+02 -.959E+03   0.240E-02 0.858E-03 -.539E+00   0.388E-06 -.662E-04 0.141E-01
   0.370E+01 -.132E+02 0.963E+03   -.370E+01 0.132E+02 -.962E+03   0.895E-02 -.114E-01 -.546E+00   -.857E-05 -.107E-03 0.141E-01
   0.212E+02 -.166E+02 0.949E+03   -.212E+02 0.166E+02 -.948E+03   0.243E-02 0.560E-02 -.502E+00   -.937E-04 -.129E-03 0.141E-01
   0.785E+01 0.645E+01 0.963E+03   -.787E+01 -.645E+01 -.962E+03   0.445E-01 -.277E-02 -.607E+00   -.582E-04 -.923E-04 0.141E-01
   0.147E+02 -.260E+02 0.937E+03   -.147E+02 0.260E+02 -.936E+03   -.191E-01 0.977E-02 -.461E+00   -.325E-04 -.293E-04 0.141E-01
   0.773E+01 -.124E+02 0.913E+03   -.773E+01 0.124E+02 -.912E+03   -.568E-02 0.249E-02 -.440E+00   -.369E-04 0.300E-04 0.140E-01
   -.547E+00 0.942E+00 0.910E+03   0.560E+00 -.934E+00 -.909E+03   -.130E-01 -.133E-01 -.440E+00   -.115E-03 0.357E-04 0.140E-01
   0.158E+02 -.174E+02 0.920E+03   -.158E+02 0.174E+02 -.920E+03   -.693E-02 -.270E-02 -.396E+00   -.829E-04 -.672E-04 0.141E-01
[...]
   0.255E+03 -.121E+03 -.110E+04   -.259E+03 0.123E+03 0.112E+04   0.383E+01 -.176E+01 -.139E+02   0.570E-03 -.334E-03 -.300E-02
   -.151E+03 0.105E+03 -.106E+04   0.151E+03 -.107E+03 0.106E+04   -.366E-01 0.175E+01 0.444E+00   -.590E-03 -.219E-03 -.303E-02
   -.178E+02 0.885E+02 -.215E+03   0.185E+02 -.942E+02 0.216E+03   -.674E+00 0.572E+01 -.153E+00   -.337E-04 0.201E-03 -.631E-03
   -.745E+02 0.538E+02 -.217E+03   0.796E+02 -.562E+02 0.217E+03   -.519E+01 0.240E+01 -.190E+00   -.208E-03 0.104E-03 -.632E-03
   0.344E+02 -.731E+02 -.216E+03   -.349E+02 0.791E+02 0.216E+03   0.500E+00 -.592E+01 0.181E-01   0.147E-04 -.243E-03 -.586E-03
   0.948E+02 0.236E+02 -.206E+03   -.101E+03 -.277E+02 0.204E+03   0.592E+01 0.413E+01 0.186E+01   0.207E-03 0.569E-04 -.547E-03
   0.418E+02 -.889E+02 -.207E+03   -.424E+02 0.960E+02 0.205E+03   0.666E+00 -.716E+01 0.189E+01   0.747E-04 -.209E-03 -.551E-03
   -.960E+02 0.579E+02 -.215E+03   0.103E+03 -.616E+02 0.215E+03   -.657E+01 0.371E+01 -.223E+00   -.129E-03 -.164E-05 -.637E-03
   0.501E+02 0.154E+02 -.223E+03   -.526E+02 -.146E+02 0.228E+03   0.248E+01 -.817E+00 -.476E+01   0.116E-03 0.861E-04 -.781E-03
   0.696E+01 0.801E+02 -.209E+03   -.565E+01 -.855E+02 0.209E+03   -.135E+01 0.539E+01 0.339E+00   0.460E-04 0.151E-03 -.650E-03
   0.631E+02 0.169E+02 -.199E+03   -.668E+02 -.162E+02 0.195E+03   0.364E+01 -.760E+00 0.381E+01   0.109E-03 0.648E-04 -.503E-03
   -.788E+02 -.297E+02 -.202E+03   0.846E+02 0.304E+02 0.201E+03   -.576E+01 -.690E+00 0.479E+00   -.406E-04 -.205E-04 -.656E-03
   0.623E+01 -.652E+02 -.190E+03   -.886E+01 0.680E+02 0.186E+03   0.268E+01 -.281E+01 0.416E+01   0.717E-05 -.430E-04 -.557E-03
   0.760E+00 -.522E+02 -.219E+03   -.267E+01 0.542E+02 0.224E+03   0.193E+01 -.201E+01 -.500E+01   -.319E-05 -.519E-04 -.726E-03
   -.107E+02 0.111E+02 0.878E+01   0.178E-11 -.185E-12 0.133E-10   0.107E+02 -.111E+02 -.906E+01   -.803E-03 -.994E-03 0.137E+01

 POSITION                                       TOTAL-FORCE (eV/Angst)
      0.00000      0.00000      0.00000        -0.000428      0.002005     -0.133686
     15.90463      2.50433      0.00000         0.001142     -0.001583     -0.130357
      1.44588      2.50433      0.00000        -0.003713     -0.006703     -0.128926
      2.89175      0.00000      0.00000        -0.000011      0.003555     -0.128047
     -2.89175      5.00866      0.00000         0.001440      0.001227     -0.130670
     -4.33763      7.51299      0.00000         0.000413     -0.001566     -0.131720
     -1.44588      7.51299      0.00000         0.000527     -0.000763     -0.128520
     -0.00000      5.00866      0.00000        -0.007279      0.001422     -0.130333
     -5.78350     10.01732      0.00000        -0.005587     -0.003949     -0.127156
     10.12113     12.52165      0.00000        -0.003004      0.003225     -0.132166
     -4.33763     12.52165      0.00000        -0.001515      0.005968     -0.128548
     -2.89175     10.01732      0.00000         0.006795     -0.003008     -0.127062
      5.78350      0.00000      0.00000        -0.002728      0.003573     -0.125750
      4.33763      2.50433      0.00000        -0.000083     -0.009466     -0.125674
      7.22938      2.50433      0.00000         0.002364     -0.000970     -0.125885
      8.67525      0.00000      0.00000         0.002195     -0.000724     -0.131216
      2.89175      5.00866      0.00000        -0.003188     -0.001248     -0.126951
      1.44588      7.51299      0.00000        -0.009027      0.003894     -0.126305
      4.33763      7.51299      0.00000         0.001507      0.000217     -0.125510
      5.78350      5.00866      0.00000         0.006080     -0.000938     -0.123607
     -0.00000     10.01732      0.00000         0.000604     -0.000807     -0.127166
     -1.44588     12.52165      0.00000         0.002805      0.001184     -0.132182
      1.44588     12.52165      0.00000         0.000608      0.000525     -0.127831
      2.89175     10.01732      0.00000        -0.006803      0.007964     -0.127825
     11.56700      0.00000      0.00000         0.001739     -0.000620     -0.130434
     10.12113      2.50433      0.00000        -0.001954     -0.000524     -0.130216
     13.01288      2.50433      0.00000         0.000960     -0.001009     -0.130179
     14.45875      0.00000      0.00000        -0.001805      0.001480     -0.130824
      8.67525      5.00866      0.00000         0.003066      0.000968     -0.127361
      7.22938      7.51299      0.00000         0.007418      0.000498     -0.126217
     10.12113      7.51299      0.00000        -0.001669     -0.000204     -0.127145
     11.56700      5.00866      0.00000        -0.001065      0.001117     -0.130283
      5.78350     10.01732      0.00000         0.003655      0.005031     -0.127956
      4.33763     12.52165      0.00000        -0.002431      0.004121     -0.128619
      7.22938     12.52165      0.00000         0.002637      0.002443     -0.133100
      8.67525     10.01732      0.00000         0.000526     -0.001103     -0.126974
      2.89178      1.66954      2.36115         0.001758      0.001338      0.117822
      1.44590      4.17386      2.36115         0.000498     -0.008892      0.098687
     -1.44585      4.17386      2.36115        -0.009691     -0.004597      0.116504
      0.00003      1.66954      2.36115        -0.004863     -0.008766      0.110133
      0.00003      6.67819      2.36115        -0.007945     -0.003775      0.088805
     -1.44585      9.18252      2.36115        -0.024591      0.016843      0.118122
     -4.33760      9.18252      2.36115        -0.003608      0.004306      0.141459
     -2.89172      6.67819      2.36115        -0.020952      0.007597      0.130342
     -2.89172     11.68685      2.36115        -0.000619      0.004833      0.148553
     -4.33760     14.19118      2.36115         0.006073     -0.008775      0.132155
     -7.22935     14.19118      2.36115         0.006527     -0.005694      0.111866
     -5.78347     11.68685      2.36115         0.007368      0.004290      0.132513
      8.67528      1.66954      2.36115        -0.001011      0.002981      0.148601
      7.22940      4.17386      2.36115         0.000480     -0.011295      0.146127
      4.33765      4.17386      2.36115         0.011696      0.008571      0.147594
      5.78353      1.66954      2.36115         0.006242      0.011326      0.149020
      5.78353      6.67819      2.36115        -0.007455     -0.009279      0.129980
      4.33765      9.18252      2.36115         0.005006      0.006910      0.098044
      1.44590      9.18252      2.36115        -0.000371      0.012786      0.098096
      2.89178      6.67819      2.36115         0.019989     -0.009242      0.106728
      2.89178     11.68685      2.36115        -0.007480      0.010160      0.117199
      1.44590     14.19118      2.36115        -0.010624      0.003802      0.143411
     -1.44585     14.19118      2.36115         0.000141     -0.004968      0.148321
      0.00003     11.68685      2.36115        -0.015405      0.009508      0.135847
[...]
      7.85975     11.06176     10.57552         0.004963     -0.012331     -0.027177
      1.36236      7.43834     10.26131        -0.008344      0.005380      0.002551
      6.20424      7.92937     10.28577        -0.006036     -0.001106      0.001017
      4.18695      3.85029     10.29412         0.001960      0.003492      0.003281
      6.19415      5.30827     10.27812         0.008193     -0.004073      0.000330
      3.63243      8.78314     10.15908        -0.000508     -0.006574     -0.000594
      0.56462      6.86831      9.99472         0.006864     -0.002309      0.001138
      1.28176      8.41483      9.98985         0.009763     -0.011445      0.002305
      7.08620      7.42462     10.31822         0.007700     -0.009058      0.006738
      1.05396      4.74552     11.39290         0.013429     -0.003782     -0.028004
      1.83620      3.51096     10.35956         0.001720     -0.004212      0.005341
      0.80503      4.75429      9.63533        -0.028072      0.003172     -0.032038
      8.94508     11.18041     10.48893         0.010725     -0.001733      0.008998
      7.35026     11.59835      9.76029         0.009965     -0.004113      0.007326
      7.49403     11.43648     11.54117        -0.012753      0.005191      0.028938
    total drift:                                0.036804     -0.082501      1.097921

  FREE ENERGIE OF THE ION-ELECTRON SYSTEM (eV)
  free  energy   TOTEN  =      -534.00519583 eV

  energy  without entropy=     -533.98122998  energy(sigma->0) =     -533.99321291

[...]

  free energy =  -0.523103887695E+03  energy without entropy=  -0.523079922632E+03

[...]

 eigenvalue-minimisations  :  5909
 total energy-change (2. order) :-0.1334440E-05  (-0.1248318E-05)
 number of electron    1654.0000758 magnetization
 augmentation part      760.3599311 magnetization

[...]

 eigenvalues of (default mixing * dielectric matrix)
  average eigenvalue GAMMA=   1.1341
  2.1342  1.0117  0.2565

[...]

--------------------------------------- Iteration      2(   5)  ---------------------------------------

 eigenvalue-minimisations  :  4530
 total energy-change (2. order) : 0.1864886E-05  (-0.1262646E-06)
 number of electron    1654.0000758 magnetization
 augmentation part      760.3599066 magnetization

 DIPCOR: dipole corrections for dipol
 direction  3 min pos   167,
 dipolmoment           0.000000      0.000000     -0.398125 electrons x Angstroem
 Tr[quadrupol]    -86610.332823

 energy correction for charged system         0.000000 eV
 dipol+quadrupol energy correction           -0.002518 eV
 added-field ion interaction         -8.033349 eV  (added to PSCEN)

  free energy =  -0.523103894647E+03  energy without entropy=  -0.523079931810E+03

------------------------ aborting loop because EDIFF is reached ----------------------------------------

  Number of pair interactions contributing to vdW energy:  664659
  Edisp (eV):  -10.90145

  FORCE on cell =-STRESS in cart. coord.  units (eV):
  Direction    XX          YY          ZZ          XY          YZ          ZX
  Alpha Z  3286.08781  3286.08781  3286.08781
  Ewald  473541.94994473428.62110************  1313.96194    11.65942   148.88373
  Hartree515624.69609515558.19722************  1198.90408    23.37128    94.22714
  E(xc)   -8631.68601 -8631.87288 -8660.51163     0.04437    -0.05674     0.23110
  Local  ************************************ -2521.68002   -37.33758  -234.10582
  n-local -1367.82164 -1366.57407 -1409.82388     2.82738     0.16183     0.17841
  augment 13250.37851 13250.54777 13304.46077     0.33954     0.13626    -0.44158
  Kinetic 20708.50599 20708.41283 20977.84610     5.67943     1.72502    -8.51238
  Fock        0.00000     0.00000     0.00000     0.00000     0.00000     0.00000
  vdW       -15.16782   -15.13314   -11.69917    -0.14692    -0.01876    -0.00231
  Total       9.94011     9.68154    10.43056    -0.07019    -0.35928     0.45829
  in kB       2.76620     2.69424     2.90268    -0.01953    -0.09998     0.12753

  FREE ENERGIE OF THE ION-ELECTRON SYSTEM (eV)
  free  energy   TOTEN  =      -534.00534324 eV

  energy  without entropy=     -533.98138040  energy(sigma->0) =     -533.99336182

 d Force = 0.1325681E-03[ 0.339E-04, 0.231E-03]  d Energy = 0.1474076E-03-0.148E-04
 d Force = 0.1585895E+01[ 0.159E+01, 0.159E+01]  d Ewald  = 0.1585894E+01 0.382E-06

 Steepest descent step on ions:
 trial-energy change:   -0.000147  1 .order   -0.000133   -0.000231   -0.000034
  (g-gl).g = 0.231E-03      g.g   = 0.231E-03  gl.gl    = 0.000E+00
 g(Force)  = 0.231E-03   g(Stress)= 0.000E+00 ortho     = 0.000E+00
 gamma     =   0.00000
 trial     =   1.00000
 opt step  =   1.17200  (harmonic =   1.17200) maximal distance =0.00126143
 next E    =  -534.005331   (d E  =  -0.00014)

 reached required accuracy - stopping structural energy minimisation