 vasp.5.4.4.18Apr17-6-g9f103f2a35 (build Jun 30 2017 19:19:18) complex

 executed on         MareNostrum4 date 2022.04.19  22:26:15

 INCAR:
 POTCAR:    PAW_PBE Ru 04Feb2005
 POTCAR:    PAW_PBE C 08Apr2002
 POTCAR:    PAW_PBE H 15Jun2001
 POTCAR:    PAW_PBE O 08Apr2002

 POTCAR:    PAW_PBE Ru 04Feb2005

 POTCAR:    PAW_PBE C 08Apr2002

 POTCAR:    PAW_PBE H 15Jun2001

 POTCAR:    PAW_PBE O 08Apr2002

 Optimization of the real space projectors (new method)

 maximal supplied QI-value         = 13.98
 optimisation between [QCUT,QGAM] = [ 10.77, 21.68] = [ 32.47,131.56] Ry
 Optimized for a Real-space Cutoff    1.51 Angstroem

   l    n(q)    QCUT    max X(q) W(low)/X(q) W(high)/X(q)  e(spline)
   2      9    10.768    61.733    0.26E-03    0.97E-04    0.28E-06
   2      9    10.768    59.886    0.26E-03    0.10E-03    0.29E-06
   0     10    10.768    23.358    0.12E-03    0.28E-03    0.38E-06
   0     10    10.768    11.320    0.93E-04    0.23E-03    0.31E-06
   1      9    10.768    14.765    0.48E-03    0.21E-03    0.19E-06
   1      9    10.768     8.283    0.36E-03    0.16E-03    0.15E-06
 Optimization of the real space projectors (new method)

[...]

   l    n(q)    QCUT    max X(q) W(low)/X(q) W(high)/X(q)  e(spline)
   0      8    10.603    19.460    0.37E-03    0.59E-03    0.23E-06
   0      8    10.603    12.209    0.35E-03    0.56E-03    0.22E-06
   1      7    10.603     4.655    0.70E-04    0.28E-03    0.29E-06
 Optimization of the real space projectors (new method)

 maximal supplied QI-value         = 24.76
 optimisation between [QCUT,QGAM] = [ 10.64, 21.54] = [ 31.73,129.89] Ry
 Optimized for a Real-space Cutoff    1.23 Angstroem

   l    n(q)    QCUT    max X(q) W(low)/X(q) W(high)/X(q)  e(spline)
   0      8    10.645    20.381    0.38E-03    0.60E-03    0.15E-06
   0      8    10.645    15.268    0.40E-03    0.65E-03    0.17E-06
   1      7    10.645     5.964    0.30E-03    0.63E-03    0.18E-06
   1      7    10.645     5.382    0.24E-03    0.53E-03    0.16E-06
  PAW_PBE Ru 04Feb2005                  :
  PAW_PBE C 08Apr2002                   :
  PAW_PBE H 15Jun2001                   :
  PAW_PBE O 08Apr2002                   :

 POSCAR: Ru  C  H  O
  positions in cartesian coordinates
 exchange correlation table for  LEXCH =        8
   RHO(1)=    0.500       N(1)  =     2000
   RHO(2)=  100.500       N(2)  =     4000

 ion  position               nearest neighbor table
   1  0.048  0.167  0.200-  85 2.33  90 2.34  30 2.66  53 2.66  29 2.66   4 2.71   2 2.71  28 2.71
                             6 2.71   5 2.71  25 2.71
   2  0.048  0.417  0.200-  89 2.18  31 2.66  54 2.66  30 2.66   1 2.71   3 2.71   7 2.71  25 2.71
                             6 2.71  26 2.71
   3  0.048  0.667  0.200-  32 2.66  55 2.66  31 2.66   4 2.71   2 2.71  26 2.71   8 2.71  27 2.71
                             7 2.71
   4  0.048  0.917  0.200-  29 2.66  56 2.66  32 2.66   3 2.71   1 2.71  27 2.71   5 2.71  28 2.71
                             8 2.71
   5  0.190  0.167  0.200-  86 2.41  34 2.66  29 2.66  33 2.66  10 2.71   8 2.71   6 2.71   4 2.71
                             9 2.71   1 2.71
   6  0.190  0.417  0.200-  87 2.15  88 2.31  92 2.63  35 2.66  30 2.66  34 2.66  11 2.71   7 2.71
                             5 2.71   1 2.71  10 2.71   2 2.71
   7  0.190  0.667  0.200-  36 2.66  31 2.66  35 2.66  12 2.71   6 2.71   8 2.71   2 2.71  11 2.71
                             3 2.71
   8  0.190  0.917  0.200-  33 2.66  32 2.66  36 2.66   9 2.71   5 2.71   7 2.71   3 2.71  12 2.71
                             4 2.71
   9  0.333  0.167  0.200-  38 2.66  33 2.66  37 2.66   8 2.71  12 2.71  10 2.71  14 2.71   5 2.71
                            13 2.71
  10  0.333  0.417  0.200-  93 2.20  92 2.40  39 2.66  34 2.66  38 2.66   5 2.71  11 2.71   9 2.71
                            15 2.71   6 2.71  14 2.71
  11  0.333  0.667  0.200-  40 2.66  35 2.66  39 2.66   6 2.71  12 2.71  10 2.71  16 2.71   7 2.71
                            15 2.71
  12  0.333  0.917  0.200-  37 2.66  36 2.66  40 2.66   7 2.71  11 2.71   9 2.71  13 2.71   8 2.71
                            16 2.71
  13  0.476  0.167  0.200-  42 2.66  37 2.66  41 2.66  18 2.71  14 2.71  16 2.71  12 2.71  17 2.71
                             9 2.71
  14  0.476  0.417  0.200-  43 2.66  38 2.66  42 2.66  19 2.71  13 2.71  15 2.71   9 2.71  18 2.71
                            10 2.71
  15  0.476  0.667  0.200- 109 2.28  44 2.66  39 2.66  43 2.66  20 2.71  16 2.71  14 2.71  10 2.71
                            19 2.71  11 2.71
  16  0.476  0.917  0.200-  41 2.66  40 2.66  44 2.66  17 2.71  13 2.71  15 2.71  11 2.71  20 2.71
                            12 2.71
  17  0.619  0.167  0.200-  46 2.66  41 2.66  45 2.66  16 2.71  20 2.71  18 2.71  22 2.71  13 2.71
                            21 2.71
  18  0.619  0.417  0.200-  47 2.66  42 2.66  46 2.66  13 2.71  19 2.71  17 2.71  23 2.71  14 2.71
                            22 2.71
  19  0.619  0.667  0.200-  48 2.66  43 2.66  47 2.66  14 2.71  20 2.71  18 2.71  24 2.71  15 2.71
                            23 2.71
  20  0.619  0.917  0.200-  45 2.66  44 2.66  48 2.66  15 2.71  19 2.71  17 2.71  21 2.71  16 2.71
                            24 2.71
  21  0.762  0.167  0.200-  50 2.66  45 2.66  49 2.66  26 2.71  22 2.71  24 2.71  20 2.71  25 2.71
                            17 2.71
  22  0.762  0.417  0.200-  51 2.66  46 2.66  50 2.66  27 2.71  21 2.71  23 2.71  17 2.71  26 2.71
                            18 2.71
  23  0.762  0.667  0.200-  52 2.66  47 2.66  51 2.66  28 2.71  22 2.71  24 2.71  18 2.71  27 2.71
                            19 2.71
  24  0.762  0.917  0.200-  49 2.66  48 2.66  52 2.66  25 2.71  21 2.71  23 2.71  19 2.71  28 2.71
                            20 2.71
  25  0.905  0.167  0.200- 107 2.53  54 2.66  49 2.66  53 2.66  24 2.71  26 2.71  28 2.71   2 2.71
                            21 2.71   1 2.71
  26  0.905  0.417  0.200-  55 2.66  50 2.66  54 2.66  21 2.71  27 2.71  25 2.71   3 2.71  22 2.71
                             2 2.71
  27  0.905  0.667  0.200-  56 2.66  51 2.66  55 2.66  22 2.71  28 2.71  26 2.71   4 2.71  23 2.71
                             3 2.71
  28  0.905  0.917  0.200-  53 2.66  52 2.66  56 2.66  23 2.71  27 2.71  25 2.71   1 2.71  24 2.71
                             4 2.71
  29  0.095  0.083  0.100-   4 2.66   5 2.66   1 2.66  60 2.66  61 2.66  57 2.66  56 2.71  30 2.71
                            32 2.71  34 2.71  53 2.71  33 2.71
  30  0.095  0.333  0.100-   1 2.66   6 2.66   2 2.66  57 2.66  62 2.66  58 2.66  53 2.71  29 2.71
                            31 2.71  35 2.71  54 2.71  34 2.71
  31  0.095  0.583  0.100-   2 2.66   7 2.66   3 2.66  58 2.66  63 2.66  59 2.66  54 2.71  30 2.71
                            32 2.71  36 2.71  55 2.71  35 2.71
  32  0.095  0.833  0.100-   3 2.66   8 2.66   4 2.66  59 2.66  64 2.66  60 2.66  55 2.71  29 2.71
                            31 2.71  33 2.71  56 2.71  36 2.71
  33  0.238  0.083  0.100-   8 2.66   9 2.66   5 2.66  64 2.66  65 2.66  61 2.66  38 2.71  34 2.71
                            36 2.71  32 2.71  37 2.71  29 2.71
  34  0.238  0.333  0.100-   5 2.66  10 2.66   6 2.66  61 2.66  66 2.66  62 2.66  39 2.71  33 2.71
                            35 2.71  29 2.71  38 2.71  30 2.71
  35  0.238  0.583  0.100-   6 2.66  11 2.66   7 2.66  62 2.66  67 2.66  63 2.66  40 2.71  34 2.71
                            36 2.71  30 2.71  39 2.71  31 2.71
  36  0.238  0.833  0.100-   7 2.66  12 2.66   8 2.66  63 2.66  68 2.66  64 2.66  37 2.71  33 2.71
                            35 2.71  31 2.71  40 2.71  32 2.71
  37  0.381  0.083  0.100-  12 2.66  13 2.66   9 2.66  68 2.66  69 2.66  65 2.66  36 2.71  40 2.71
                            38 2.71  42 2.71  33 2.71  41 2.71
  38  0.381  0.333  0.100-   9 2.66  14 2.66  10 2.66  65 2.66  70 2.66  66 2.66  33 2.71  39 2.71
                            37 2.71  43 2.71  34 2.71  42 2.71
  39  0.381  0.583  0.100-  10 2.66  15 2.66  11 2.66  66 2.66  71 2.66  67 2.66  34 2.71  40 2.71
                            38 2.71  44 2.71  35 2.71  43 2.71
  40  0.381  0.833  0.100-  11 2.66  16 2.66  12 2.66  67 2.66  72 2.66  68 2.66  35 2.71  39 2.71
                            37 2.71  41 2.71  36 2.71  44 2.71
  41  0.524  0.083  0.100-  16 2.66  17 2.66  13 2.66  72 2.66  73 2.66  69 2.66  46 2.71  42 2.71
                            44 2.71  40 2.71  45 2.71  37 2.71
  42  0.524  0.333  0.100-  13 2.66  18 2.66  14 2.66  69 2.66  74 2.66  70 2.66  47 2.71  41 2.71
                            43 2.71  37 2.71  46 2.71  38 2.71
  43  0.524  0.583  0.100-  14 2.66  19 2.66  15 2.66  70 2.66  75 2.66  71 2.66  48 2.71  42 2.71
                            44 2.71  38 2.71  47 2.71  39 2.71
  44  0.524  0.833  0.100-  15 2.66  20 2.66  16 2.66  71 2.66  76 2.66  72 2.66  45 2.71  41 2.71
                            43 2.71  39 2.71  48 2.71  40 2.71
  45  0.667  0.083  0.100-  20 2.66  21 2.66  17 2.66  76 2.66  77 2.66  73 2.66  44 2.71  48 2.71
                            46 2.71  50 2.71  41 2.71  49 2.71
  46  0.667  0.333  0.100-  17 2.66  22 2.66  18 2.66  73 2.66  78 2.66  74 2.66  41 2.71  47 2.71
                            45 2.71  51 2.71  42 2.71  50 2.71
  47  0.667  0.583  0.100-  18 2.66  23 2.66  19 2.66  74 2.66  79 2.66  75 2.66  42 2.71  48 2.71
                            46 2.71  52 2.71  43 2.71  51 2.71
  48  0.667  0.833  0.100-  19 2.66  24 2.66  20 2.66  75 2.66  80 2.66  76 2.66  43 2.71  47 2.71
                            45 2.71  49 2.71  44 2.71  52 2.71
  49  0.810  0.083  0.100-  24 2.66  25 2.66  21 2.66  80 2.66  81 2.66  77 2.66  52 2.71  50 2.71
                            54 2.71  48 2.71  45 2.71  53 2.71
  50  0.810  0.333  0.100-  21 2.66  26 2.66  22 2.66  77 2.66  82 2.66  78 2.66  51 2.71  49 2.71
                            55 2.71  45 2.71  46 2.71  54 2.71
  51  0.810  0.583  0.100-  22 2.66  27 2.66  23 2.66  78 2.66  83 2.66  79 2.66  52 2.71  50 2.71
                            56 2.71  46 2.71  47 2.71  55 2.71
  52  0.810  0.833  0.100-  23 2.66  28 2.66  24 2.66  79 2.66  84 2.66  80 2.66  51 2.71  49 2.71
                            53 2.71  47 2.71  56 2.71  48 2.71
  53  0.952  0.083  0.100-  28 2.66   1 2.66  25 2.66  84 2.66  57 2.66  81 2.66  30 2.71  56 2.71
                            54 2.71  52 2.71  29 2.71  49 2.71
  54  0.952  0.333  0.100-  25 2.66   2 2.66  26 2.66  81 2.66  58 2.66  82 2.66  31 2.71  55 2.71
                            53 2.71  49 2.71  30 2.71  50 2.71
  55  0.952  0.583  0.100-  26 2.66   3 2.66  27 2.66  82 2.66  59 2.66  83 2.66  32 2.71  56 2.71
                            54 2.71  50 2.71  31 2.71  51 2.71
  56  0.952  0.833  0.100-  27 2.66   4 2.66  28 2.66  83 2.66  60 2.66  84 2.66  29 2.71  55 2.71
                            53 2.71  51 2.71  32 2.71  52 2.71
  57  0.048  0.167  0.000-  30 2.66  53 2.66  29 2.66  58 2.71  60 2.71  62 2.71  84 2.71  81 2.71
                            61 2.71
  58  0.048  0.417  0.000-  31 2.66  54 2.66  30 2.66  57 2.71  59 2.71  63 2.71  81 2.71  62 2.71
                            82 2.71
[...]
   -.231E+02 -.497E+02 0.154E+03   0.231E+02 0.495E+02 -.153E+03   -.594E-01 0.199E-01 0.864E-01   -.480E-02 -.820E-02 -.605E+00
   -.223E+02 -.232E+02 0.111E+03   0.223E+02 0.232E+02 -.111E+03   -.730E-01 -.214E-01 0.564E-01   -.552E-02 0.179E-03 -.592E+00
   -.427E+02 -.984E+00 0.121E+03   0.426E+02 0.105E+01 -.121E+03   -.276E-01 -.190E-01 0.152E+00   -.535E-02 0.326E-02 -.599E+00
   -.486E+02 -.152E+02 0.153E+03   0.485E+02 0.153E+02 -.152E+03   0.857E-01 -.130E+00 -.148E+00   -.266E-02 -.401E-02 -.596E+00
   -.251E+02 -.406E+02 0.140E+03   0.251E+02 0.404E+02 -.140E+03   0.437E-01 0.219E+00 -.105E+00   0.422E-03 -.687E-02 -.589E+00
   0.973E+01 -.106E+02 0.107E+03   -.973E+01 0.105E+02 -.107E+03   -.127E-01 0.282E-01 0.506E-01   0.488E-02 -.295E-02 -.589E+00
   0.863E-01 0.237E+01 0.988E+02   -.882E-01 -.237E+01 -.982E+02   -.333E-01 -.285E-01 -.569E-01   -.337E-02 0.229E-02 -.590E+00
   -.110E+02 0.992E+01 0.111E+03   0.110E+02 -.995E+01 -.110E+03   -.189E-01 -.123E-01 0.247E-01   -.540E-02 0.169E-02 -.600E+00
   -.173E+01 -.343E+01 0.121E+03   0.173E+01 0.346E+01 -.120E+03   -.491E-02 -.296E-01 0.385E-02   0.206E-02 -.197E-02 -.597E+00
   0.511E+02 0.172E+02 0.141E+03   -.509E+02 -.171E+02 -.140E+03   -.129E+00 -.570E-01 0.556E-01   -.245E-03 -.173E-02 -.586E+00
   0.434E+02 0.864E+01 0.119E+03   -.434E+02 -.863E+01 -.118E+03   -.780E-02 0.866E-02 0.545E-01   0.130E-02 -.537E-02 -.581E+00
   0.270E+02 0.272E+02 0.116E+03   -.270E+02 -.272E+02 -.115E+03   0.404E-01 0.186E-01 -.381E-01   -.779E-02 -.126E-02 -.594E+00
   0.331E+02 0.362E+02 0.136E+03   -.330E+02 -.362E+02 -.135E+03   0.507E-01 -.180E-01 0.658E-01   -.800E-02 0.200E-04 -.603E+00
   0.527E+02 0.417E+02 0.211E+03   -.526E+02 -.416E+02 -.210E+03   -.208E+00 -.166E+00 -.127E+00   -.622E-03 0.104E-01 -.595E+00
   0.682E+02 0.241E+01 0.187E+03   -.681E+02 -.235E+01 -.186E+03   -.235E+00 -.115E+00 -.289E+00   0.912E-02 -.535E-02 -.580E+00
   0.432E+02 0.164E+02 0.148E+03   -.432E+02 -.164E+02 -.147E+03   0.398E-01 -.395E-01 0.204E-01   -.523E-03 -.769E-02 -.598E+00
   0.301E+02 0.517E+02 0.170E+03   -.301E+02 -.516E+02 -.169E+03   -.432E-01 0.161E-01 0.612E-01   -.769E-02 0.297E-02 -.615E+00
   0.132E+02 0.116E+02 0.140E+04   -.131E+02 -.114E+02 -.140E+04   -.351E-02 -.377E-01 -.333E+01   0.111E-01 0.650E-02 -.281E+00
   0.196E+02 -.107E+01 0.139E+04   -.195E+02 0.966E+00 -.139E+04   -.793E-01 0.660E-01 -.327E+01   0.230E-01 0.822E-02 -.281E+00
   0.138E+02 0.428E+01 0.138E+04   -.138E+02 -.434E+01 -.138E+04   0.235E-01 -.882E-02 -.388E+01   0.152E-01 0.136E-01 -.294E+00
   0.756E+01 0.164E+02 0.139E+04   -.759E+01 -.164E+02 -.138E+04   -.127E-01 0.904E-01 -.389E+01   0.632E-02 0.372E-02 -.295E+00
[...]
   0.974E+01 -.793E+02 -.211E+03   -.967E+01 0.848E+02 0.212E+03   -.925E-01 -.544E+01 -.154E+01   0.511E-03 0.175E-02 0.177E-01
   0.649E+02 -.432E+02 -.221E+03   -.691E+02 0.455E+02 0.224E+03   0.422E+01 -.228E+01 -.309E+01   -.248E-02 0.371E-03 0.195E-01
   0.387E+02 0.103E+03 -.200E+03   -.377E+02 -.111E+03 0.200E+03   -.961E+00 0.800E+01 -.744E+00   -.190E-02 -.931E-03 0.181E-01
   -.455E+02 0.163E+01 -.214E+03   0.484E+02 0.685E+00 0.218E+03   -.295E+01 -.237E+01 -.414E+01   0.101E-02 -.212E-03 0.253E-01
   0.132E+02 0.771E+02 -.191E+03   -.151E+02 -.824E+02 0.193E+03   0.191E+01 0.527E+01 -.164E+01   -.109E-02 -.250E-02 0.234E-01
   -.495E+02 0.371E+02 -.153E+03   0.527E+02 -.378E+02 0.149E+03   -.331E+01 0.660E+00 0.422E+01   0.391E-03 -.738E-03 0.197E-01
   0.827E+01 -.760E+02 -.206E+03   -.892E+01 0.813E+02 0.207E+03   0.652E+00 -.532E+01 -.115E+01   0.971E-03 0.234E-02 0.160E-01
   -.358E+02 0.625E+02 -.206E+03   0.365E+02 -.679E+02 0.207E+03   -.604E+00 0.545E+01 -.140E+01   0.164E-02 -.107E-03 0.183E-01
   -.150E+02 -.481E+01 -.233E+03   0.144E+02 0.518E+01 0.238E+03   0.670E+00 -.374E+00 -.550E+01   0.818E-03 0.114E-02 0.238E-01
   -.780E+02 0.282E+02 -.186E+03   0.830E+02 -.305E+02 0.185E+03   -.501E+01 0.226E+01 0.982E+00   0.146E-02 0.716E-03 0.186E-01
   -.834E+02 -.695E+02 -.214E+03   0.899E+02 0.740E+02 0.217E+03   -.653E+01 -.449E+01 -.230E+01   0.789E-03 0.106E-02 0.184E-01
   0.371E+03 0.737E+02 -.119E+04   -.411E+03 -.532E+02 0.120E+04   0.393E+02 -.206E+02 -.930E+01   -.106E-01 0.310E-02 0.101E+00
   0.136E+03 0.239E+03 -.118E+04   -.173E+03 -.256E+03 0.120E+04   0.367E+02 0.167E+02 -.124E+02   -.719E-02 -.315E-02 0.123E+00
   -.710E+02 -.237E+03 -.112E+04   0.374E+02 0.250E+03 0.111E+04   0.336E+02 -.131E+02 0.158E+02   0.438E-04 0.173E-02 0.971E-01
   -.797E+02 0.147E+02 0.847E+02   0.291E-12 0.125E-11 0.180E-10   0.797E+02 -.147E+02 -.527E+02   -.288E-01 0.414E-01 -.318E+02

 POSITION                                       TOTAL-FORCE (eV/Angst)
     -0.00001      1.56613      4.29100        -0.186095     -0.607121     -0.326225
     -1.35631      3.91531      4.29100        -0.025328      0.142514     -0.613687
     -2.71261      6.26449      4.29100        -0.187715      0.132253     -1.068372
     -4.06891      8.61367      4.29100         0.070920     -0.448354     -1.318899
      2.71259      1.56613      4.29100        -0.473117     -0.179191     -0.246110
      1.35629      3.91531      4.29100         0.005995      0.352603     -1.135109
     -0.00001      6.26449      4.29100        -0.065975      0.592467     -1.110757
     -1.35631      8.61367      4.29100         0.117634     -0.130049     -1.041554
      5.42519      1.56613      4.29100         0.259005     -0.220331     -1.171535
      4.06889      3.91531      4.29100         0.485312      0.219413     -0.096930
      2.71259      6.26449      4.29100        -0.007711      0.628948     -1.234419
      1.35629      8.61367      4.29100        -0.010931      0.023726     -0.989504
      8.13779      1.56613      4.29100         0.000277     -0.034760     -0.981259
      6.78149      3.91531      4.29100         0.375901     -0.231428     -1.280793
      5.42519      6.26449      4.29100         0.099900      0.107201     -0.766315
      4.06889      8.61367      4.29100        -0.054378      0.207158     -1.095544
     10.85039      1.56613      4.29100         0.030403     -0.010531     -0.997378
      9.49409      3.91531      4.29100         0.045639      0.006636     -1.005819
      8.13779      6.26449      4.29100         0.230807      0.061803     -1.077538
      6.78149      8.61367      4.29100         0.095179      0.131296     -1.022180
     13.56299      1.56613      4.29100        -0.125926     -0.015708     -1.035153
     12.20669      3.91531      4.29100         0.011111     -0.005335     -1.010940
     10.85039      6.26449      4.29100        -0.025748     -0.028460     -0.966180
      9.49409      8.61367      4.29100        -0.089367     -0.125747     -0.991371
     16.27559      1.56613      4.29100        -0.344356     -0.253906     -0.810785
     14.91929      3.91531      4.29100        -0.270275      0.173782     -1.069064
     13.56299      6.26449      4.29100        -0.006563     -0.032805     -1.010245
     12.20669      8.61367      4.29100        -0.075555     -0.454142     -1.196481
      1.35631      0.78305      2.14564         0.144414     -0.153560     -0.285650
      0.00001      3.13223      2.14564         0.120451      0.018811     -0.713130
     -1.35629      5.48141      2.14564        -0.020463      0.117781     -0.265822
     -2.71259      7.83059      2.14564        -0.045968      0.010376      0.192102
      4.06891      0.78305      2.14564         0.065472      0.011068     -0.168574
      2.71261      3.13223      2.14564         0.019441     -0.168126     -0.625128
      1.35631      5.48141      2.14564         0.007209      0.183827     -0.136952
      0.00001      7.83059      2.14564        -0.073502     -0.100715      0.365181
      6.78151      0.78305      2.14564        -0.077206     -0.000359      0.169799
      5.42521      3.13223      2.14564        -0.101369     -0.051029     -0.157972
      4.06891      5.48141      2.14564        -0.085032      0.060368     -0.225848
      2.71261      7.83059      2.14564        -0.052005     -0.177130      0.226240
      9.49411      0.78305      2.14564        -0.054804     -0.067847      0.069833
      8.13781      3.13223      2.14564        -0.108014      0.050059      0.224361
      6.78151      5.48141      2.14564         0.010451      0.007991     -0.070372
      5.42521      7.83059      2.14564         0.075939      0.065415      0.081989
     12.20671      0.78305      2.14564        -0.011593      0.012666      0.048849
     10.85041      3.13223      2.14564        -0.039104     -0.026811     -0.028144
      9.49411      5.48141      2.14564        -0.051625     -0.033507      0.051138
      8.13781      7.83059      2.14564        -0.008424     -0.010220     -0.014989
     14.91931      0.78305      2.14564         0.057885      0.089799      0.280059
     13.56301      3.13223      2.14564         0.043861      0.010444      0.099998
     12.20671      5.48141      2.14564         0.011695      0.005506      0.009429
     10.85041      7.83059      2.14564         0.099673      0.068557      0.107607
     17.63191      0.78305      2.14564        -0.064527     -0.006593     -0.071674
     16.27561      3.13223      2.14564        -0.051080     -0.058330     -0.146678
     14.91931      5.48141      2.14564         0.039182     -0.089242      0.022432
     13.56301      7.83059      2.14564        -0.038880      0.066569      0.034842
     -0.00001      1.56613      0.00000         0.060899      0.142132      1.022601
     -1.35631      3.91531      0.00000         0.019594     -0.034285      1.072441
     -2.71261      6.26449      0.00000         0.048131     -0.052738      0.985108
     -4.06891      8.61367      0.00000        -0.029754      0.117215      0.947953
[...]
      2.57038      1.68827      7.00594         0.004010     -0.004379     -0.006664
      0.45583      5.37196      6.65571        -0.002381     -0.014450     -0.007369
     -1.65361      4.07131      7.00022        -0.011067     -0.001690     -0.000058
     17.14418      0.59806      6.80174         0.003211      0.015891      0.010672
     -3.39895      9.35910      8.34238         0.003106      0.002297     -0.003958
     -4.34091      7.89751      7.84838         0.005290      0.004670     -0.002984
     -3.31796      8.76101      6.64070        -0.010328     -0.001892      0.012741
      2.78342      5.47641      6.54602         0.001021      0.010127     -0.010504
      4.36685      2.84278      6.77368        -0.009827      0.002943      0.017670
      5.20058      4.83392      8.19285        -0.005471     -0.003676     -0.004834
      6.32960      4.30752      6.89030         0.005147     -0.005601     -0.012254
      6.05888      6.60397      6.84702         0.006687     -0.006902     -0.004392
     16.99461      1.56893      6.72140        -0.008423     -0.020894     -0.012121
      0.28623      0.25733      7.22272        -0.000642      0.011983     -0.015392
      5.27235      6.09853      6.55518        -0.007700     -0.000251     -0.012296
    total drift:                                0.041299     -0.009174      0.280134

  FREE ENERGIE OF THE ION-ELECTRON SYSTEM (eV)
  free  energy   TOTEN  =      -882.46836586 eV

  energy  without entropy=     -882.43822808  energy(sigma->0) =     -882.45329697

[...]

  free energy =  -0.874461982672E+03  energy without entropy=  -0.874431859780E+03

[...]

 d Force = 0.1685790E-03[ 0.937E-04, 0.243E-03]  d Energy = 0.1253371E-02-0.108E-02
 d Force =-0.5439134E-01[-0.546E-01,-0.542E-01]  d Ewald  =-0.5439148E-01 0.144E-06

 Steepest descent step on ions:
 trial-energy change:   -0.001253  1 .order   -0.000169   -0.000243   -0.000094
  (g-gl).g = 0.243E-03      g.g   = 0.243E-03  gl.gl    = 0.000E+00
 g(Force)  = 0.243E-03   g(Stress)= 0.000E+00 ortho     = 0.000E+00
 gamma     =   0.00000
 trial     =   1.00000
 opt step  =   1.01388  (harmonic =   1.62540) maximal distance =0.00065421
 next E    =  -882.469620   (d E  =  -0.00125)

[...]

 d Force =-0.2089368E-05[-0.173E-04, 0.131E-04]  d Energy =-0.8280324E-06-0.126E-05
 d Force =-0.2437342E-01[-0.244E-01,-0.243E-01]  d Ewald  =-0.2437344E-01 0.195E-07

[...]

 d Force = 0.1095176E-03[ 0.925E-04, 0.127E-03]  d Energy = 0.1094199E-03 0.977E-07
 d Force = 0.6067506E+00[ 0.607E+00, 0.607E+00]  d Ewald  = 0.6067505E+00 0.661E-07

 Conjugate gradient step on ions:
 trial-energy change:   -0.000109  1 .order   -0.000110   -0.000127   -0.000093
  (g-gl).g = 0.249E-03      g.g   = 0.210E-03  gl.gl    = 0.243E-03
 g(Force)  = 0.210E-03   g(Stress)= 0.000E+00 ortho     =-0.389E-04
 gamma     =   1.02203
 trial     =   0.74369
 opt step  =   2.76772  (harmonic =   2.76772) maximal distance =0.00206412
 next E    =  -882.469886   (d E  =  -0.00024)

[...]

 d Force = 0.1206587E-03[-0.105E-04, 0.252E-03]  d Energy = 0.1234430E-03-0.278E-05
 d Force = 0.1652422E+01[ 0.165E+01, 0.165E+01]  d Ewald  = 0.1652422E+01 0.285E-06

[...]

 d Force = 0.5768470E-04[-0.137E-04, 0.129E-03]  d Energy = 0.5737278E-04 0.312E-06
 d Force = 0.2372084E+01[ 0.237E+01, 0.237E+01]  d Ewald  = 0.2372084E+01 0.296E-07

[...]

 d Force =-0.9199233E-04[-0.290E-03, 0.106E-03]  d Energy =-0.7628914E-04-0.157E-04
 d Force = 0.4696376E+01[ 0.470E+01, 0.470E+01]  d Ewald  = 0.4696377E+01-0.704E-06

[...]

 d Force = 0.1078131E-03[ 0.314E-05, 0.212E-03]  d Energy = 0.9524895E-04 0.126E-04
 d Force =-0.3437613E+01[-0.344E+01,-0.344E+01]  d Ewald  =-0.3437614E+01 0.317E-06

[...]

 eigenvalue-minimisations  :  2466
 total energy-change (2. order) : 0.2301631E-04  (-0.1579794E-05)
 number of electron     742.0000138 magnetization
 augmentation part      234.0910757 magnetization

[...]

 eigenvalues of (default mixing * dielectric matrix)
  average eigenvalue GAMMA=   0.4433
  0.9794  0.2140  0.1365

[...]

--------------------------------------- Iteration     19(   5)  ---------------------------------------

 eigenvalue-minimisations  :  2403
 total energy-change (2. order) :-0.2865199E-06  (-0.3481633E-06)
 number of electron     742.0000138 magnetization
 augmentation part      234.0910184 magnetization

 DIPCOR: dipole corrections for dipol
 direction  3 min pos   148,
 dipolmoment           0.000000      0.000000     -1.153663 electrons x Angstroem
 Tr[quadrupol]    -28880.041777

 energy correction for charged system         0.000000 eV
 dipol+quadrupol energy correction           -0.031778 eV
 added-field ion interaction        -31.441119 eV  (added to PSCEN)

  free energy =  -0.874464675852E+03  energy without entropy=  -0.874434665812E+03

------------------------ aborting loop because EDIFF is reached ----------------------------------------

  Number of pair interactions contributing to vdW energy:  412395
  Edisp (eV):   -8.00580

  FORCE on cell =-STRESS in cart. coord.  units (eV):
  Direction    XX          YY          ZZ          XY          YZ          ZX
  Alpha Z   993.58395   993.58395   993.58395
  Ewald  200944.57311201098.65640************   185.80592  -583.63425   173.33019
  Hartree209077.29932209223.19989************   109.08135  -400.97507   108.53557
  E(xc)   -3429.32224 -3428.42065 -3434.78979    -0.05304    -0.67822     0.17206
  Local  ************************424190.40092  -291.23260   961.08013  -274.19081
  n-local   774.61892   774.75225   574.69007     1.56504    -2.61410     0.30861
  augment  3819.87124  3814.78783  3837.40396     0.42642     1.64613    -0.52839
  Kinetic  8942.48010  8913.02421  9079.05133    -2.44055    24.71985    -8.16863
  Fock        0.00000     0.00000     0.00000     0.00000     0.00000     0.00000
  vdW        -8.88740    -8.98004    -6.73345    -0.12696    -0.03295     0.05417
  Total    -106.44771  -102.81121  -118.12977     3.02560    -0.48848    -0.48723
  in kB     -44.58982   -43.06653   -49.48331     1.26739    -0.20462    -0.20409

  FREE ENERGIE OF THE ION-ELECTRON SYSTEM (eV)
  free  energy   TOTEN  =      -882.47047320 eV

  energy  without entropy=     -882.44046316  energy(sigma->0) =     -882.45546818

 d Force = 0.5806942E-04[ 0.463E-04, 0.699E-04]  d Energy = 0.5522233E-04 0.285E-05
 d Force = 0.8094151E+00[ 0.809E+00, 0.809E+00]  d Ewald  = 0.8094151E+00 0.515E-07

 Conjugate gradient step on ions:
 trial-energy change:   -0.000055  1 .order   -0.000058   -0.000070   -0.000046
  (g-gl).g = 0.699E-04      g.g   = 0.932E-04  gl.gl    = 0.170E-03
 g(Force)  = 0.932E-04   g(Stress)= 0.000E+00 ortho     =-0.182E-05
 gamma     =   0.41190
 trial     =   0.75599
 opt step  =   2.23945  (harmonic =   2.23945) maximal distance =0.00172514
 next E    =  -882.470521   (d E  =  -0.00010)

 reached required accuracy - stopping structural energy minimisation