 vasp.5.3.2 13Sep12 (build Oct 24 2012 13:28:27) complex

 executed on             LinuxIFC date 2016.06.11  03:32:01

 INCAR:
 POTCAR:    PAW_PBE Ru 04Feb2005
 POTCAR:    PAW_PBE Ru 04Feb2005

 Optimization of the real space projectors (new method)

 maximal supplied QI-value         = 13.98
 optimisation between [QCUT,QGAM] = [ 10.77, 21.68] = [ 32.47,131.56] Ry
 Optimized for a Real-space Cutoff    1.51 Angstroem

   l    n(q)    QCUT    max X(q) W(low)/X(q) W(high)/X(q)  e(spline)
   2      9    10.768    61.733    0.26E-03    0.97E-04    0.28E-06
   2      9    10.768    59.886    0.26E-03    0.10E-03    0.29E-06
   0     10    10.768    23.358    0.12E-03    0.28E-03    0.38E-06
   0     10    10.768    11.320    0.93E-04    0.23E-03    0.31E-06
   1      9    10.768    14.765    0.48E-03    0.21E-03    0.19E-06
   1      9    10.768     8.283    0.36E-03    0.16E-03    0.15E-06
  PAW_PBE Ru 04Feb2005                  :

 POSCAR: Ru-2r3Ã—2r3
  positions in direct lattice
  velocities in cartesian coordinates
 exchange correlation table for  LEXCH =        8
   RHO(1)=    0.500       N(1)  =     2000
   RHO(2)=  100.500       N(2)  =     4000

 ion  position               nearest neighbor table
   1  0.000  0.167  0.000-  14 2.65  13 2.65  18 2.65   9 2.71   5 2.71   2 2.71   6 2.71  11 2.71
                             3 2.71
   2  0.333  0.000  0.000-  16 2.65  21 2.65  14 2.65  12 2.71   4 2.71   1 2.71   3 2.71  10 2.71
                             9 2.71
   3  0.167  0.333  0.000-  19 2.65  15 2.65  14 2.65  11 2.71   7 2.71   4 2.71   2 2.71   1 2.71
                             8 2.71
   4  0.500  0.167  0.000-  17 2.65  16 2.65  15 2.65  12 2.71   2 2.71   3 2.71   5 2.71   8 2.71
                             6 2.71
   5  0.833  0.000  0.000-  13 2.65  24 2.65  17 2.65   9 2.71   1 2.71   4 2.71   6 2.71   7 2.71
                            12 2.71
   6  0.667  0.333  0.000-  22 2.65  18 2.65  17 2.65   8 2.71  10 2.71   1 2.71   5 2.71  11 2.71
                             4 2.71
   7  0.000  0.667  0.000-  20 2.65  19 2.65  24 2.65  11 2.71   3 2.71  12 2.71   8 2.71   5 2.71
                             9 2.71
   8  0.333  0.500  0.000-  22 2.65  15 2.65  20 2.65   6 2.71  10 2.71   7 2.71   4 2.71   9 2.71
                             3 2.71
   9  0.167  0.833  0.000-  13 2.65  21 2.65  20 2.65   5 2.71   1 2.71  10 2.71   8 2.71   7 2.71
                             2 2.71
  10  0.500  0.667  0.000-  23 2.65  22 2.65  21 2.65   8 2.71   6 2.71  11 2.71   9 2.71   2 2.71
                            12 2.71
  11  0.833  0.500  0.000-  19 2.65  18 2.65  23 2.65   3 2.71   7 2.71  10 2.71  12 2.71   1 2.71
                             6 2.71
  12  0.667  0.833  0.000-  16 2.65  24 2.65  23 2.65   2 2.71   4 2.71   7 2.71  11 2.71   5 2.71
                            10 2.71
  13  0.000  0.000  0.107-   5 2.65   9 2.65   1 2.65  29 2.70  33 2.70  25 2.70  24 2.71  14 2.71
                            17 2.71  21 2.71  20 2.71  18 2.71
  14  0.167  0.167  0.107-   1 2.65   2 2.65   3 2.65  25 2.70  26 2.70  27 2.70  18 2.71  21 2.71
                            13 2.71  16 2.71  19 2.71  15 2.71
  15  0.333  0.333  0.107-   8 2.65   4 2.65   3 2.65  32 2.70  28 2.70  27 2.70  17 2.71  22 2.71
                            20 2.71  19 2.71  16 2.71  14 2.71
  16  0.500  0.000  0.107-   2 2.65  12 2.65   4 2.65  26 2.70  36 2.70  28 2.70  21 2.71  17 2.71
                            24 2.71  14 2.71  15 2.71  23 2.71
  17  0.667  0.167  0.107-   4 2.65   5 2.65   6 2.65  28 2.70  29 2.70  30 2.70  15 2.71  24 2.71
                            16 2.71  13 2.71  22 2.71  18 2.71
  18  0.833  0.333  0.107-  11 2.65   1 2.65   6 2.65  35 2.70  25 2.70  30 2.70  14 2.71  23 2.71
                            19 2.71  22 2.71  13 2.71  17 2.71
  19  0.000  0.500  0.107-   3 2.65  11 2.65   7 2.65  27 2.70  35 2.70  31 2.70  20 2.71  18 2.71
                            23 2.71  15 2.71  24 2.71  14 2.71
  20  0.167  0.667  0.107-   7 2.65   8 2.65   9 2.65  31 2.70  32 2.70  33 2.70  24 2.71  15 2.71
                            19 2.71  22 2.71  13 2.71  21 2.71
  21  0.333  0.833  0.107-   2 2.65  10 2.65   9 2.65  26 2.70  34 2.70  33 2.70  23 2.71  14 2.71
                            16 2.71  13 2.71  22 2.71  20 2.71
  22  0.500  0.500  0.107-   6 2.65   8 2.65  10 2.65  30 2.70  32 2.70  34 2.70  23 2.71  15 2.71
                            18 2.71  20 2.71  17 2.71  21 2.71
  23  0.667  0.667  0.107-  10 2.65  11 2.65  12 2.65  34 2.70  35 2.70  36 2.70  21 2.71  22 2.71
                            18 2.71  19 2.71  16 2.71  24 2.71
  24  0.833  0.833  0.107-   5 2.65   7 2.65  12 2.65  29 2.70  31 2.70  36 2.70  20 2.71  13 2.71
                            17 2.71  16 2.71  19 2.71  23 2.71
  25  0.000  0.167  0.217-  38 2.62  37 2.62  42 2.62  14 2.70  13 2.70  18 2.70  33 2.71  29 2.71
                            26 2.71  30 2.71  35 2.71  27 2.71
  26  0.333  0.000  0.217-  40 2.62  45 2.62  38 2.62  16 2.70  21 2.70  14 2.70  36 2.71  28 2.71
                            25 2.71  27 2.71  34 2.71  33 2.71
  27  0.167  0.333  0.217-  43 2.62  39 2.62  38 2.62  19 2.70  15 2.70  14 2.70  35 2.71  31 2.71
                            28 2.71  26 2.71  25 2.71  32 2.71
  28  0.500  0.167  0.217-  41 2.62  40 2.62  39 2.62  17 2.70  16 2.70  15 2.70  36 2.71  26 2.71
                            27 2.71  29 2.71  32 2.71  30 2.71
  29  0.833  0.000  0.217-  37 2.62  48 2.62  41 2.62  13 2.70  24 2.70  17 2.70  33 2.71  25 2.71
                            28 2.71  30 2.71  31 2.71  36 2.71
  30  0.667  0.333  0.217-  46 2.62  42 2.62  41 2.62  22 2.70  18 2.70  17 2.70  32 2.71  34 2.71
                            25 2.71  29 2.71  35 2.71  28 2.71
  31  0.000  0.667  0.217-  44 2.62  43 2.62  48 2.62  20 2.70  19 2.70  24 2.70  35 2.71  27 2.71
                            36 2.71  32 2.71  29 2.71  33 2.71
  32  0.333  0.500  0.217-  46 2.62  39 2.62  44 2.62  22 2.70  15 2.70  20 2.70  30 2.71  34 2.71
                            31 2.71  28 2.71  33 2.71  27 2.71
  33  0.167  0.833  0.217-  37 2.62  45 2.62  44 2.62  13 2.70  21 2.70  20 2.70  29 2.71  25 2.71
                            34 2.71  32 2.71  31 2.71  26 2.71
  34  0.500  0.667  0.217-  47 2.62  46 2.62  45 2.62  23 2.70  22 2.70  21 2.70  32 2.71  30 2.71
                            35 2.71  33 2.71  26 2.71  36 2.71
  35  0.833  0.500  0.217-  43 2.62  42 2.62  47 2.62  19 2.70  18 2.70  23 2.70  27 2.71  31 2.71
                            34 2.71  36 2.71  25 2.71  30 2.71
  36  0.667  0.833  0.217-  40 2.62  48 2.62  47 2.62  16 2.70  24 2.70  23 2.70  26 2.71  28 2.71
                            31 2.71  35 2.71  29 2.71  34 2.71
  37  0.000  0.000  0.322-  29 2.62  33 2.62  25 2.62  38 2.71  48 2.71  45 2.71  41 2.71  42 2.71
                            44 2.71
  38  0.167  0.167  0.322-  25 2.62  26 2.62  27 2.62  42 2.71  37 2.71  45 2.71  40 2.71  43 2.71
                            39 2.71
  39  0.333  0.333  0.322-  32 2.62  28 2.62  27 2.62  41 2.71  44 2.71  46 2.71  43 2.71  40 2.71
                            38 2.71
  40  0.500  0.000  0.322-  26 2.62  36 2.62  28 2.62  41 2.71  45 2.71  38 2.71  48 2.71  47 2.71
                            39 2.71
  41  0.667  0.167  0.322-  28 2.62  29 2.62  30 2.62  39 2.71  40 2.71  48 2.71  37 2.71  46 2.71
                            42 2.71
  42  0.833  0.333  0.322-  35 2.62  25 2.62  30 2.62  38 2.71  43 2.71  47 2.71  46 2.71  37 2.71
                            41 2.71
  43  0.000  0.500  0.322-  27 2.62  35 2.62  31 2.62  42 2.71  44 2.71  39 2.71  47 2.71  38 2.71
                            48 2.71
  44  0.167  0.667  0.322-  31 2.62  32 2.62  33 2.62  48 2.71  43 2.71  39 2.71  46 2.71  37 2.71
                            45 2.71
  45  0.333  0.833  0.322-  26 2.62  34 2.62  33 2.62  47 2.71  40 2.71  38 2.71  37 2.71  46 2.71
                            44 2.71
  46  0.500  0.500  0.322-  30 2.62  32 2.62  34 2.62  39 2.71  47 2.71  44 2.71  42 2.71  45 2.71
                            41 2.71
  47  0.667  0.667  0.322-  34 2.62  35 2.62  36 2.62  45 2.71  42 2.71  46 2.71  43 2.71  40 2.71
                            48 2.71
  48  0.833  0.833  0.322-  29 2.62  31 2.62  36 2.62  44 2.71  41 2.71  37 2.71  40 2.71  43 2.71
                            47 2.71

  LATTYP: Found a hexagonal cell.
 ALAT       =     9.3949750306
 C/A-ratio  =     2.1287975684

  Lattice vectors:

 A1 = (   4.6974875153,  -8.1362870444,   0.0000000000)
 A2 = (  -9.3949750306,   0.0000000000,   0.0000000000)
 A3 = (   0.0000000000,   0.0000000000, -20.0000000000)

Analysis of symmetry for initial positions (statically):
 Subroutine PRICEL returns following result:

[...]

  12 primitive cells build up your supercell.

 Routine SETGRP: Setting up the symmetry group for a
 hexagonal supercell.

 Subroutine GETGRP returns: Found  6 space group operations
 (whereof  6 operations were pure point group operations)
 out of a pool of 24 trial point group operations.

The static configuration has the point symmetry C_3v.

Analysis of symmetry for dynamics (positions and initial velocities):
 Subroutine PRICEL returns following result:

[...]

The dynamic configuration has the point symmetry C_3v.

Analysis of constrained symmetry for selective dynamics:
 Subroutine PRICEL returns following result:

  LATTYP: Found a hexagonal cell.
 ALAT       =     2.7120956815
 C/A-ratio  =     7.3743710949

  Lattice vectors:

 A1 = (  -2.3487437576,  -1.3560478407,   0.0000000000)
 A2 = (   0.0000000000,   2.7120956815,   0.0000000000)
 A3 = (   0.0000000000,   0.0000000000, -20.0000000000)

  12 primitive cells build up your supercell.

 Routine SETGRP: Setting up the symmetry group for a
 hexagonal supercell.

 Subroutine GETGRP returns: Found  6 space group operations
 (whereof  6 operations were pure point group operations)
 out of a pool of 24 trial point group operations.

The constrained configuration has the point symmetry C_3v.

 KPOINTS: K-POINTS

Automatic generation of k-mesh.
Space group operators:
 irot       det(A)        alpha          n_x          n_y          n_z        tau_x        tau_y        tau_z
    1     1.000000     0.000000     1.000000     0.000000     0.000000     0.000000     0.000000     0.000000
    2     1.000000   120.000000     0.000000     0.000000     1.000000     0.000000     0.000000     0.000000
    3     1.000000   120.000000     0.000000     0.000000    -1.000000     0.000000     0.000000     0.000000
    4    -1.000000   179.999999     0.866025    -0.500000     0.000000     0.000000     0.000000     0.000000
    5    -1.000000   180.000000     0.866025     0.500000     0.000000     0.000000     0.000000     0.000000
    6    -1.000000   180.000000     0.000000     1.000000     0.000000     0.000000     0.000000     0.000000

 Subroutine IBZKPT returns following result:

 Found      3 irreducible k-points:

 Following reciprocal coordinates:
            Coordinates               Weight
  0.000000  0.000000  0.000000      1.000000
  0.333333  0.000000  0.000000      6.000000
 -0.333333  0.333333  0.000000      2.000000

 Following cartesian coordinates:
[...]
  Alpha Z   691.46717   691.46717   691.46717
  Ewald   89652.97016 89652.97016************     0.00000     0.00000     0.00000
  Hartree 94551.75358 94551.75358-93557.03761     0.00000     0.00000     0.00000
  E(xc)   -1805.53207 -1805.53223 -1809.77947     0.00014     0.00000     0.00000
  Local  ************************194691.89859     0.00116     0.00001     0.00000
  n-local   538.26793   533.68294   450.84501    -3.97061    -2.29647    -1.34540
  augment  2166.58353  2166.58495  2183.29932    -0.00123     0.00000     0.00000
  Kinetic  4475.34591  4465.06023  4523.76198    -8.90788     6.54826     3.78066
  Fock        0.00000     0.00000     0.00000     0.00000     0.00000     0.00000
  Total     -52.10183   -52.10183   -47.45552     0.00000     0.00000     0.00000
  in kB     -54.60239   -54.60239   -49.73309     0.00000     0.00000     0.00000

 VOLUME and BASIS-vectors are now :
  energy-cutoff  :      450.00
  volume of cell :     1528.80
      direct lattice vectors                 reciprocal lattice vectors
     9.394975031  0.000000000  0.000000000     0.106439878 -0.061453092  0.000000000
     4.697487515  8.136287044  0.000000000     0.000000000  0.122906185  0.000000000
     0.000000000  0.000000000 20.000000000     0.000000000  0.000000000  0.050000000

  length of vectors
     9.394975031  9.394975031 20.000000000     0.122906185  0.122906185  0.050000000

 FORCES acting on ions
    electron-ion (+dipol)            ewald-force                    non-local-force                 convergence-correction
   0.193E-04 0.257E-04 0.155E+04   0.704E-11 0.248E-10 -.154E+04   0.840E-18 0.271E-18 -.389E+01   0.277E-09 0.797E-09 -.238E-02
   -.319E-04 -.381E-05 0.155E+04   -.252E-10 0.622E-11 -.154E+04   -.705E-18 -.434E-18 -.389E+01   -.829E-09 0.158E-09 -.238E-02
   0.132E-04 -.229E-04 0.155E+04   0.181E-10 -.311E-10 -.154E+04   0.434E-18 0.217E-18 -.389E+01   0.273E-09 -.472E-09 -.238E-02
   0.193E-04 0.257E-04 0.155E+04   0.714E-11 0.247E-10 -.154E+04   -.461E-18 0.352E-18 -.389E+01   0.277E-09 0.797E-09 -.238E-02
   -.319E-04 -.381E-05 0.155E+04   -.251E-10 0.623E-11 -.154E+04   0.103E-17 0.488E-18 -.389E+01   -.829E-09 0.158E-09 -.238E-02
   0.132E-04 -.229E-04 0.155E+04   0.181E-10 -.311E-10 -.154E+04   0.146E-17 -.867E-18 -.389E+01   0.273E-09 -.472E-09 -.238E-02
   0.193E-04 0.257E-04 0.155E+04   0.704E-11 0.248E-10 -.154E+04   0.171E-17 -.106E-17 -.389E+01   0.277E-09 0.797E-09 -.238E-02
   -.319E-04 -.381E-05 0.155E+04   -.251E-10 0.623E-11 -.154E+04   -.379E-18 0.108E-17 -.389E+01   -.829E-09 0.158E-09 -.238E-02
   0.132E-04 -.229E-04 0.155E+04   0.182E-10 -.311E-10 -.154E+04   0.222E-17 -.759E-18 -.389E+01   0.273E-09 -.472E-09 -.238E-02
   0.193E-04 0.257E-04 0.155E+04   0.712E-11 0.248E-10 -.154E+04   -.225E-17 0.157E-17 -.389E+01   0.277E-09 0.797E-09 -.238E-02
   -.319E-04 -.381E-05 0.155E+04   -.250E-10 0.618E-11 -.154E+04   0.306E-17 -.184E-17 -.389E+01   -.829E-09 0.158E-09 -.238E-02
   0.132E-04 -.229E-04 0.155E+04   0.182E-10 -.312E-10 -.154E+04   0.108E-18 0.152E-17 -.389E+01   0.273E-09 -.472E-09 -.238E-02
   -.386E-06 0.628E-06 0.514E+03   -.156E-12 0.648E-13 -.514E+03   -.271E-19 -.705E-18 0.515E-01   0.110E-08 -.190E-08 0.862E-03
   -.359E-05 -.116E-05 0.514E+03   0.443E-10 0.256E-10 -.514E+03   0.163E-18 -.379E-18 0.515E-01   0.110E-08 -.191E-08 0.862E-03
   0.282E-05 0.255E-05 0.514E+03   -.445E-10 -.255E-10 -.514E+03   -.312E-18 0.000E+00 0.515E-01   0.110E-08 -.191E-08 0.862E-03
   -.386E-06 0.628E-06 0.514E+03   -.112E-12 0.995E-13 -.514E+03   0.257E-18 -.407E-18 0.515E-01   0.110E-08 -.190E-08 0.862E-03
   -.359E-05 -.116E-05 0.514E+03   0.443E-10 0.256E-10 -.514E+03   -.407E-18 -.352E-18 0.515E-01   0.110E-08 -.191E-08 0.862E-03
   0.282E-05 0.255E-05 0.514E+03   -.445E-10 -.255E-10 -.514E+03   0.569E-18 -.352E-18 0.515E-01   0.110E-08 -.191E-08 0.862E-03
   -.386E-06 0.628E-06 0.514E+03   -.514E-13 0.799E-13 -.514E+03   0.312E-18 -.352E-18 0.515E-01   0.110E-08 -.190E-08 0.862E-03
   -.359E-05 -.116E-05 0.514E+03   0.443E-10 0.256E-10 -.514E+03   0.854E-18 -.434E-18 0.515E-01   0.110E-08 -.191E-08 0.862E-03
   0.282E-05 0.255E-05 0.514E+03   -.444E-10 -.256E-10 -.514E+03   0.827E-18 -.434E-18 0.515E-01   0.110E-08 -.191E-08 0.862E-03
   -.386E-06 0.628E-06 0.514E+03   -.646E-14 0.793E-13 -.514E+03   0.163E-18 -.867E-18 0.515E-01   0.110E-08 -.190E-08 0.862E-03
   -.359E-05 -.116E-05 0.514E+03   0.443E-10 0.256E-10 -.514E+03   0.271E-18 -.759E-18 0.515E-01   0.110E-08 -.191E-08 0.862E-03
   0.282E-05 0.255E-05 0.514E+03   -.444E-10 -.255E-10 -.514E+03   0.149E-18 -.271E-18 0.515E-01   0.110E-08 -.191E-08 0.862E-03
   0.212E-04 0.275E-04 -.507E+03   0.528E-12 0.257E-10 0.507E+03   -.157E-17 0.651E-18 -.414E+00   0.182E-08 -.149E-08 0.490E-02
   -.344E-04 -.465E-05 -.507E+03   -.225E-10 0.124E-10 0.507E+03   0.312E-18 -.163E-18 -.414E+00   0.382E-09 -.232E-08 0.490E-02
   0.148E-04 -.256E-04 -.507E+03   0.220E-10 -.381E-10 0.507E+03   -.132E-17 -.949E-19 -.414E+00   0.182E-08 -.315E-08 0.490E-02
   0.212E-04 0.275E-04 -.507E+03   0.622E-12 0.257E-10 0.507E+03   -.569E-18 0.434E-18 -.414E+00   0.182E-08 -.149E-08 0.490E-02
   -.344E-04 -.465E-05 -.507E+03   -.224E-10 0.124E-10 0.507E+03   -.474E-18 0.217E-18 -.414E+00   0.382E-09 -.232E-08 0.490E-02
   0.148E-04 -.256E-04 -.507E+03   0.221E-10 -.382E-10 0.507E+03   0.623E-18 0.119E-19 -.414E+00   0.182E-08 -.315E-08 0.490E-02
   0.212E-04 0.275E-04 -.507E+03   0.526E-12 0.257E-10 0.507E+03   0.184E-17 0.542E-18 -.414E+00   0.182E-08 -.149E-08 0.490E-02
   -.344E-04 -.465E-05 -.507E+03   -.224E-10 0.124E-10 0.507E+03   -.759E-18 -.379E-18 -.414E+00   0.382E-09 -.232E-08 0.490E-02
   0.148E-04 -.256E-04 -.507E+03   0.222E-10 -.382E-10 0.507E+03   0.723E-18 -.132E-18 -.414E+00   0.182E-08 -.315E-08 0.490E-02
   0.212E-04 0.275E-04 -.507E+03   0.629E-12 0.257E-10 0.507E+03   -.786E-18 0.271E-18 -.414E+00   0.182E-08 -.149E-08 0.490E-02
   -.344E-04 -.465E-05 -.507E+03   -.223E-10 0.124E-10 0.507E+03   0.867E-18 -.136E-18 -.414E+00   0.382E-09 -.232E-08 0.490E-02
   0.148E-04 -.256E-04 -.507E+03   0.222E-10 -.382E-10 0.507E+03   -.544E-18 -.796E-19 -.414E+00   0.182E-08 -.315E-08 0.490E-02
   -.239E-06 0.309E-06 -.155E+04   -.171E-12 -.213E-13 0.155E+04   -.217E-18 -.130E-17 0.426E+01   0.223E-09 -.387E-09 0.226E-02
   -.331E-05 -.136E-05 -.155E+04   0.431E-10 0.250E-10 0.155E+04   -.488E-18 0.867E-18 0.426E+01   0.225E-09 -.389E-09 0.226E-02
   0.275E-05 0.205E-05 -.155E+04   -.433E-10 -.250E-10 0.155E+04   -.114E-17 -.488E-18 0.426E+01   0.224E-09 -.389E-09 0.226E-02
   -.239E-06 0.309E-06 -.155E+04   -.128E-12 -.213E-13 0.155E+04   0.434E-18 0.163E-17 0.426E+01   0.223E-09 -.387E-09 0.226E-02
   -.331E-05 -.136E-05 -.155E+04   0.432E-10 0.249E-10 0.155E+04   -.244E-17 -.488E-18 0.426E+01   0.225E-09 -.389E-09 0.226E-02
   0.275E-05 0.205E-05 -.155E+04   -.432E-10 -.249E-10 0.155E+04   -.206E-17 -.114E-17 0.426E+01   0.224E-09 -.389E-09 0.226E-02
   -.239E-06 0.309E-06 -.155E+04   -.841E-13 0.000E+00 0.155E+04   -.173E-17 -.103E-17 0.426E+01   0.223E-09 -.387E-09 0.226E-02
   -.331E-05 -.136E-05 -.155E+04   0.432E-10 0.250E-10 0.155E+04   -.276E-17 0.542E-19 0.426E+01   0.225E-09 -.389E-09 0.226E-02
   0.275E-05 0.205E-05 -.155E+04   -.432E-10 -.250E-10 0.155E+04   -.206E-17 0.867E-18 0.426E+01   0.224E-09 -.389E-09 0.226E-02
   -.239E-06 0.309E-06 -.155E+04   -.378E-13 0.171E-13 0.155E+04   -.363E-17 0.651E-18 0.426E+01   0.223E-09 -.387E-09 0.226E-02
   -.331E-05 -.136E-05 -.155E+04   0.432E-10 0.250E-10 0.155E+04   -.390E-17 0.596E-18 0.426E+01   0.225E-09 -.389E-09 0.226E-02
   0.275E-05 0.205E-05 -.155E+04   -.431E-10 -.250E-10 0.155E+04   -.136E-17 0.000E+00 0.426E+01   0.224E-09 -.390E-09 0.226E-02
   0.172E-05 -.323E-05 0.180E-02   0.120E-12 -.167E-12 0.182E-11   -.131E-16 -.341E-17 0.428E-01   0.309E-07 -.535E-07 0.678E-01

 POSITION                                       TOTAL-FORCE (eV/Angst)
      0.78291      1.35605      0.00000         0.000000      0.000000      0.774827
      3.13166      0.00000      0.00000         0.000000      0.000000      0.774827
      3.13166      2.71210      0.00000         0.000000      0.000000      0.774827
      5.48040      1.35605      0.00000         0.000000      0.000000      0.774827
      7.82915      0.00000      0.00000         0.000000      0.000000      0.774827
      7.82915      2.71210      0.00000         0.000000      0.000000      0.774827
      3.13166      5.42419      0.00000         0.000000      0.000000      0.774827
      5.48040      4.06814      0.00000         0.000000      0.000000      0.774827
      5.48040      6.78024      0.00000         0.000000      0.000000      0.774827
      7.82915      5.42419      0.00000         0.000000      0.000000      0.774827
     10.17789      4.06814      0.00000         0.000000      0.000000      0.774827
     10.17789      6.78024      0.00000         0.000000      0.000000      0.774827
      0.00000      0.00000      2.14396         0.000000      0.000000     -0.166644
      2.34874      1.35605      2.14396         0.000000      0.000000     -0.166644
      4.69749      2.71210      2.14396         0.000000      0.000000     -0.166644
      4.69749      0.00000      2.14396         0.000000      0.000000     -0.166644
      7.04623      1.35605      2.14396         0.000000      0.000000     -0.166644
      9.39498      2.71210      2.14396         0.000000      0.000000     -0.166644
      2.34874      4.06814      2.14396         0.000000      0.000000     -0.166644
      4.69749      5.42419      2.14396         0.000000      0.000000     -0.166644
      7.04623      6.78024      2.14396         0.000000      0.000000     -0.166644
      7.04623      4.06814      2.14396         0.000000      0.000000     -0.166644
      9.39498      5.42419      2.14396         0.000000      0.000000     -0.166644
     11.74372      6.78024      2.14396         0.000000      0.000000     -0.166644
      0.78291      1.35605      4.34463         0.000000      0.000000     -0.159740
      3.13166      0.00000      4.34463         0.000000      0.000000     -0.159740
      3.13166      2.71210      4.34463         0.000000      0.000000     -0.159740
      5.48040      1.35605      4.34463         0.000000      0.000000     -0.159740
      7.82915      0.00000      4.34463         0.000000      0.000000     -0.159740
      7.82915      2.71210      4.34463         0.000000      0.000000     -0.159740
      3.13166      5.42419      4.34463         0.000000      0.000000     -0.159740
      5.48040      4.06814      4.34463         0.000000      0.000000     -0.159740
      5.48040      6.78024      4.34463         0.000000      0.000000     -0.159740
      7.82915      5.42419      4.34463         0.000000      0.000000     -0.159740
     10.17789      4.06814      4.34463         0.000000      0.000000     -0.159740
     10.17789      6.78024      4.34463         0.000000      0.000000     -0.159740
      0.00000      0.00000      6.44498         0.000000      0.000000     -0.448443
      2.34874      1.35605      6.44498         0.000000      0.000000     -0.448443
      4.69749      2.71210      6.44498         0.000000      0.000000     -0.448443
      4.69749      0.00000      6.44498         0.000000      0.000000     -0.448443
      7.04623      1.35605      6.44498         0.000000      0.000000     -0.448443
      9.39498      2.71210      6.44498         0.000000      0.000000     -0.448443
      2.34874      4.06814      6.44498         0.000000      0.000000     -0.448443
      4.69749      5.42419      6.44498         0.000000      0.000000     -0.448443
      7.04623      6.78024      6.44498         0.000000      0.000000     -0.448443
      7.04623      4.06814      6.44498         0.000000      0.000000     -0.448443
      9.39498      5.42419      6.44498         0.000000      0.000000     -0.448443
     11.74372      6.78024      6.44498         0.000000      0.000000     -0.448443
    total drift:                                0.000002     -0.000003      0.112400

  FREE ENERGIE OF THE ION-ELECTRON SYSTEM (eV)
  free  energy   TOTEN  =      -422.71631417 eV

  energy  without entropy=     -422.69116433  energy(sigma->0) =     -422.70373925

 Quasi-Newton relaxation of ions (Broydens 2nd method)
  g(Force)  = 0.656E-01   g(Stress)= 0.000E+00

 Reset! Starting new Quasi-Newton update for ions

[...]

  free energy =  -0.418719830680E+03  energy without entropy=  -0.418694585069E+03

[...]

 d Force = 0.6119139E-01[ 0.568E-01, 0.656E-01]  d Energy = 0.6210736E-01-0.916E-03
 d Force =-0.2247795E+03[-0.225E+03,-0.225E+03]  d Ewald  =-0.2247795E+03 0.245E-04

[...]

 retain information from N=  1 steps
 eigenvalues of (default step * inverse Hessian matrix)
  average eigenvalue of G=   3.5526
 eigenvalue spectrum of G is  3.5526

[...]

 d Force = 0.4227478E-01[-0.303E-02, 0.876E-01]  d Energy = 0.4600375E-01-0.373E-02
 d Force =-0.8151370E+03[-0.817E+03,-0.813E+03]  d Ewald  =-0.8151383E+03 0.125E-02

[...]

 d Force = 0.1026558E-02[ 0.561E-03, 0.149E-02]  d Energy = 0.1083290E-02-0.567E-04
 d Force = 0.3822362E+02[ 0.382E+02, 0.382E+02]  d Ewald  = 0.3822362E+02-0.116E-05

[...]

 d Force = 0.1607080E-03[-0.902E-04, 0.412E-03]  d Energy = 0.1028081E-03 0.579E-04
 d Force = 0.2390588E+02[ 0.239E+02, 0.239E+02]  d Ewald  = 0.2390588E+02-0.429E-06

[...]

 d Force = 0.3426579E-04[-0.276E-04, 0.961E-04]  d Energy = 0.1181983E-03-0.839E-04
 d Force =-0.2060383E+02[-0.206E+02,-0.206E+02]  d Ewald  =-0.2060383E+02 0.146E-07

[...]

 d Force = 0.8221978E-05[-0.809E-06, 0.173E-04]  d Energy =-0.1416412E-04 0.224E-04
 d Force = 0.8378768E+01[ 0.838E+01, 0.838E+01]  d Ewald  = 0.8378768E+01-0.306E-08

[...]

 FEWALD executed in parallel

[...]

 eigenvalue-minimisations  :  1528
 total energy-change (2. order) :-0.1720602E-04  (-0.2231313E-05)
 number of electron     384.0000006 magnetization
 augmentation part      131.7075145 magnetization

[...]

 eigenvalues of (default mixing * dielectric matrix)
  average eigenvalue GAMMA=   0.7328
  1.9346  0.2016  0.0623

[...]

----------------------------------------- Iteration   11(   5)  ---------------------------------------

 eigenvalue-minimisations  :   773
 total energy-change (2. order) : 0.1075787E-06  (-0.6219715E-07)
 number of electron     384.0000005 magnetization
 augmentation part      131.7075692 magnetization

 DIPCOR: dipole corrections for dipol
 direction  3 min pos   144,
 dipolmoment           0.000000      0.000000     -0.013835 electrons x Angstroem
 Tr[quadrupol]     -5895.571042

 energy correction for charged system         0.000000 eV
 dipol+quadrupol energy correction           -0.000011 eV
 added-field ion interaction         -0.032312 eV  (added to PSCEN)

  free energy =  -0.418957128783E+03  energy without entropy=  -0.418934182862E+03

------------------------ aborting loop because EDIFF is reached ----------------------------------------

  Number of pair interactions contributing to vdW energy:  201396
  Estimated vdW energy (eV):  -4.12286

  FORCE on cell =-STRESS in cart. coord.  units (eV):
  Direction    XX          YY          ZZ          XY          YZ          ZX
  Alpha Z   691.46717   691.46717   691.46717
  Ewald   92067.40862 92067.40862************     0.00000     0.00000     0.00000
  Hartree 96917.56917 96917.56917-95928.06048     0.00000     0.00000     0.00000
  E(xc)   -1809.41046 -1809.41062 -1815.39318     0.00014     0.00000     0.00000
  Local  ************************199499.28481     0.00116     0.00000     0.00000
  n-local   554.50071   549.08182   487.08810    -4.69284    -2.97229    -1.73657
  augment  2165.10929  2165.11071  2178.90006    -0.00123    -0.00001     0.00001
  Kinetic  4481.88136  4472.25628  4536.74293    -8.33574     7.59384     4.38436
  Fock        0.00000     0.00000     0.00000     0.00000     0.00000     0.00000
  Total     -44.34958   -44.34958   -16.22709     0.00000     0.00000     0.00000
  in kB     -46.47808   -46.47808   -17.00589     0.00000     0.00000     0.00000

  FREE ENERGIE OF THE ION-ELECTRON SYSTEM (eV)
  free  energy   TOTEN  =      -423.07998438 eV

  energy  without entropy=     -423.05703846  energy(sigma->0) =     -423.06851142

 d Force = 0.5153263E-05[ 0.274E-06, 0.100E-04]  d Energy = 0.1205011E-04-0.690E-05
 d Force =-0.1961060E+01[-0.196E+01,-0.196E+01]  d Ewald  =-0.1961060E+01 0.509E-09

 Quasi-Newton relaxation of ions (Broydens 2nd method)
  g(Force)  = 0.589E-07   g(Stress)= 0.000E+00

 retain information from N=  2 steps
 eigenvalues of (default step * inverse Hessian matrix)
  average eigenvalue of G=   2.9388
 eigenvalue spectrum of G is  5.0173  0.8604

 reached required accuracy - stopping structural energy minimisation