 vasp.5.4.4.18Apr17-6-g9f103f2a35 (build Jun 30 2017 19:19:18) complex

 executed on         MareNostrum4 date 2022.05.19  16:19:14

 INCAR:
 POTCAR:    PAW_PBE Pt 04Feb2005
 POTCAR:    PAW_PBE H 15Jun2001
 POTCAR:    PAW_PBE C 08Apr2002
 POTCAR:    PAW_PBE O 08Apr2002

 POTCAR:    PAW_PBE Pt 04Feb2005

 POTCAR:    PAW_PBE H 15Jun2001

 POTCAR:    PAW_PBE C 08Apr2002

 POTCAR:    PAW_PBE O 08Apr2002

 Optimization of the real space projectors (new method)

 maximal supplied QI-value         = 14.36
 optimisation between [QCUT,QGAM] = [ 10.77, 21.69] = [ 32.49,131.70] Ry
 Optimized for a Real-space Cutoff    1.46 Angstroem

   l    n(q)    QCUT    max X(q) W(low)/X(q) W(high)/X(q)  e(spline)
   2      9    10.771    66.195    0.13E-03    0.31E-03    0.27E-06
   2      9    10.771    64.643    0.13E-03    0.32E-03    0.28E-06
   0     10    10.771    95.520    0.41E-04    0.13E-03    0.15E-06
   0     10    10.771    63.403    0.40E-04    0.12E-03    0.14E-06
   1      9    10.771    19.961    0.42E-03    0.19E-03    0.28E-06
   1      9    10.771    13.289    0.35E-03    0.16E-03    0.23E-06
 Optimization of the real space projectors (new method)

[...]

   l    n(q)    QCUT    max X(q) W(low)/X(q) W(high)/X(q)  e(spline)
   0      8    10.807   115.676    0.36E-03    0.72E-03    0.24E-06
   0      8    10.807    87.132    0.35E-03    0.71E-03    0.24E-06
   1      7    10.807     4.429    0.19E-03    0.39E-03    0.11E-06
   1      7    10.807     2.733    0.14E-03    0.28E-03    0.13E-06
 Optimization of the real space projectors (new method)

 maximal supplied QI-value         = 24.76
 optimisation between [QCUT,QGAM] = [ 10.64, 21.54] = [ 31.73,129.89] Ry
 Optimized for a Real-space Cutoff    1.23 Angstroem

   l    n(q)    QCUT    max X(q) W(low)/X(q) W(high)/X(q)  e(spline)
   0      8    10.645    20.381    0.38E-03    0.60E-03    0.15E-06
   0      8    10.645    15.268    0.40E-03    0.65E-03    0.17E-06
   1      7    10.645     5.964    0.30E-03    0.63E-03    0.18E-06
   1      7    10.645     5.382    0.24E-03    0.53E-03    0.16E-06
  PAW_PBE Pt 04Feb2005                  :
  PAW_PBE H 15Jun2001                   :
  PAW_PBE C 08Apr2002                   :
  PAW_PBE O 08Apr2002                   :

 POSCAR: Pt  H  C  O
  positions in direct lattice
  velocities in cartesian coordinates
 exchange correlation table for  LEXCH =        8
   RHO(1)=    0.500       N(1)  =     2000
   RHO(2)=  100.500       N(2)  =     4000

 ion  position               nearest neighbor table
   1  0.000  0.000  0.000-   2 2.81  57 2.81 101 2.81 156 2.81 102 2.81  56 2.81 114 2.81  68 2.81
                            13 2.81
   2  0.083  0.083  0.000- 102 2.81   1 2.81  57 2.81   7 2.81  13 2.81  14 2.81  15 2.81   4 2.81
                             3 2.81
   3  0.167  0.167  0.000-  10 2.81   5 2.81  17 2.81   8 2.81   4 2.81  19 2.81  15 2.81   7 2.81
                             2 2.81
   4  0.250  0.000  0.000-   5 2.81  60 2.81  16 2.81  59 2.81   3 2.81  15 2.81  71 2.81  57 2.81
                             2 2.81
   5  0.333  0.083  0.000-   3 2.81   4 2.81  97 2.81   6 2.81  60 2.81  10 2.81  18 2.81  16 2.81
                            17 2.81
   6  0.417  0.167  0.000- 103 2.81  98 2.81   5 2.81  10 2.81  11 2.81  97 2.81  22 2.81  18 2.81
                           110 2.81
   7  1.000  0.250  0.000- 102 2.81 107 2.81   2 2.81 108 2.81  14 2.81 120 2.81  19 2.81   8 2.81
                             3 2.81
   8  0.083  0.333  0.000-  49 2.81  10 2.81   9 2.81  21 2.81   3 2.81  19 2.81  20 2.81   7 2.81
                           108 2.81
   9  0.167  0.417  0.000-  50 2.81  49 2.81  52 2.81  11 2.81   8 2.81  61 2.81  10 2.81  23 2.81
                            21 2.81
  10  0.250  0.250  0.000-   3 2.81   8 2.81  11 2.81   6 2.81   9 2.81   5 2.81  22 2.81  21 2.81
                            17 2.81
  11  0.333  0.333  0.000-  52 2.81   9 2.81  10 2.81 103 2.81  12 2.81   6 2.81  22 2.81  23 2.81
                            24 2.81
  12  0.417  0.417  0.000-  53 2.81  52 2.81  64 2.81  11 2.81 103 2.81 145 2.81  24 2.81 116 2.81
                           104 2.81
  13  0.083  0.000  0.115-  81 2.76  26 2.78  25 2.78  68 2.81  71 2.81  15 2.81 114 2.81  69 2.81
                            14 2.81  57 2.81   2 2.81   1 2.81
  14  0.000  0.167  0.115-  27 2.77  25 2.77 131 2.78  15 2.81 118 2.81  19 2.81 114 2.81 120 2.81
                            13 2.81   7 2.81   2 2.81 102 2.81
  15  0.167  0.083  0.115-  26 2.77  28 2.77  27 2.78  14 2.81  16 2.81  13 2.81  17 2.81  71 2.81
                            19 2.81   2 2.81   4 2.81   3 2.81
  16  0.333  0.000  0.115-  84 2.77  28 2.77  29 2.78  71 2.81  15 2.81   4 2.81  72 2.81  17 2.81
                            60 2.81   5 2.81  18 2.81 164 2.81
  17  0.250  0.167  0.115-  32 2.76  30 2.76  28 2.77  19 2.81  15 2.81   3 2.81  21 2.81  16 2.81
                            10 2.81   5 2.81  18 2.81  22 2.81
  18  0.417  0.083  0.115-  30 2.75 121 2.77  29 2.77 109 2.81 110 2.81 164 2.81  22 2.81  97 2.81
                             6 2.81   5 2.81  17 2.81  16 2.81
  19  0.083  0.250  0.115-  32 2.76  31 2.76  27 2.77  14 2.81  17 2.81  21 2.81 120 2.81  20 2.81
                            15 2.81   7 2.81   8 2.81   3 2.81
  20  1.000  0.417  0.115- 173 2.75  31 2.76 162 2.81  61 2.81 160 2.81  21 2.81 120 2.81  49 2.81
                            19 2.81 108 2.81   8 2.81  33 2.85
  21  0.167  0.333  0.115-  32 2.76  33 2.79  61 2.81  20 2.81  19 2.81   8 2.81  17 2.81  10 2.81
                             9 2.81  23 2.81  22 2.81  34 2.83
  22  0.333  0.250  0.115-  30 2.77  35 2.78  34 2.80  24 2.81 110 2.81  23 2.81  18 2.81  11 2.81
                             6 2.81  10 2.81  17 2.81  21 2.81
  23  0.250  0.417  0.115-  63 2.81  64 2.81  52 2.81  24 2.81  22 2.81  61 2.81  11 2.81   9 2.81
                            21 2.81  34 2.81  74 2.81  36 2.82
  24  0.417  0.333  0.115- 127 2.79  35 2.79  64 2.81 116 2.81  22 2.81 115 2.81  23 2.81 110 2.81
                           103 2.81  12 2.81  11 2.81  36 2.83
  25  1.000  0.084  0.227-  14 2.77 114 2.78  13 2.78  27 2.80  81 2.80 126 2.80 125 2.80 131 2.80
                            37 2.81  26 2.81  38 2.81 138 2.81
  26  0.167  0.001  0.227-  15 2.77  13 2.78  71 2.78  28 2.79  81 2.80  82 2.80  27 2.80  93 2.80
                            25 2.81  38 2.81  40 2.81  84 2.81
  27  0.083  0.167  0.227-  14 2.77  19 2.77  15 2.78  39 2.79  25 2.80 131 2.80  31 2.80  26 2.80
                            32 2.81  43 2.81  38 2.81  28 2.82
  28  0.250  0.083  0.227-  15 2.77  16 2.77  17 2.77  26 2.79  84 2.80  39 2.80  30 2.80  41 2.80
                            32 2.81  40 2.82  27 2.82  29 2.82
  29  0.418  0.999  0.227- 164 2.76  18 2.77  16 2.78 175 2.79  41 2.79  84 2.80  30 2.80 121 2.81
                           133 2.81 177 2.81  28 2.82  96 2.82
  30  0.334  0.166  0.226-  18 2.75  46 2.76  17 2.76  22 2.77  29 2.80  28 2.80  42 2.80  35 2.81
                            32 2.82 121 2.82  34 2.82  41 2.83
  31  0.000  0.334  0.227-  20 2.76  19 2.76 120 2.77  44 2.78 173 2.78  32 2.80  27 2.80 132 2.80
                           144 2.82 131 2.82  43 2.83  33 2.86
  32  0.167  0.250  0.226-  19 2.76  21 2.76  17 2.76  46 2.76  31 2.80  44 2.80  33 2.81  27 2.81
                            28 2.81  30 2.82  39 2.83  34 2.83
  33  0.087  0.417  0.229-  74 2.76  34 2.77  44 2.78  85 2.78  21 2.79  61 2.79  73 2.80  32 2.81
                           173 2.85  20 2.85  45 2.86  31 2.86
  34  0.252  0.333  0.230-  35 2.76  36 2.77  33 2.77  46 2.79  22 2.80  74 2.81  23 2.81  30 2.82
                            21 2.83  32 2.83  47 2.85  45 2.86
  35  0.416  0.251  0.228-  34 2.76  47 2.77  22 2.78  24 2.79  36 2.80 110 2.80 139 2.80 127 2.81
                            30 2.81 123 2.83  42 2.83 121 2.84
  36  0.332  0.417  0.230-  34 2.77  74 2.77  76 2.79 127 2.79  77 2.79  35 2.80  23 2.82  48 2.83
                            24 2.83  64 2.83  47 2.92  88 2.95
  37  0.000  0.001  0.342-  92 2.77  38 2.80 137 2.80 138 2.80  93 2.80  25 2.81 125 2.81 192 2.81
                            81 2.81
  38  0.083  0.084  0.342-  39 2.78  93 2.79  37 2.80 138 2.80  43 2.80  25 2.81  26 2.81  27 2.81
                            40 2.81
  39  0.166  0.166  0.341-  46 2.75  38 2.78  40 2.79  27 2.79  28 2.80  43 2.81  44 2.81  32 2.83
                            41 2.83
  40  0.250  1.000  0.342-  41 2.78  93 2.78  95 2.79  39 2.79  84 2.81  26 2.81  38 2.81  96 2.82
                            28 2.82
  41  0.334  0.081  0.341-  46 2.77  96 2.78  40 2.78  42 2.78  29 2.79  28 2.80 133 2.82  30 2.83
                            39 2.83
  42  0.421  0.159  0.340- 133 2.73  47 2.75 121 2.75 134 2.78  41 2.78  30 2.80  35 2.83 139 2.87
                            46 2.88
  43  1.000  0.250  0.342-  44 2.79 138 2.80 144 2.80 143 2.80  38 2.80  39 2.81  27 2.81 131 2.81
                            31 2.83
  44  0.083  0.333  0.340-  33 2.78  31 2.78  43 2.79 144 2.80  32 2.80  85 2.81  39 2.81  46 2.82
                            45 2.84
  45  0.169  0.415  0.348- 231 2.19  44 2.84  85 2.85  33 2.86  34 2.86  46 2.87  88 2.88  74 2.88
                            47 2.89  86 2.92
  46  0.250  0.245  0.339-  39 2.75  32 2.76  30 2.76  41 2.77  34 2.79  44 2.82  47 2.83  45 2.87
                            42 2.88
  47  0.341  0.322  0.347- 230 2.16 229 2.21  42 2.75  35 2.77 139 2.80  46 2.83  34 2.85  48 2.87
                            45 2.89  36 2.92  88 3.19
  48  0.414  0.418  0.347- 227 2.19  36 2.83 181 2.85  77 2.85 127 2.87  47 2.87  89 2.87 140 2.87
                            88 2.88 139 2.94
  49  0.000  0.500  0.000-   8 2.81   9 2.81  50 2.81  61 2.81  20 2.81 150 2.81 108 2.81 162 2.81
                           149 2.81
  50  0.083  0.583  0.000-   9 2.81 150 2.81  52 2.81  49 2.81  51 2.81  55 2.81  63 2.81  61 2.81
                            62 2.81
  51  0.167  0.667  0.000-  58 2.81  53 2.81  55 2.81  50 2.81  56 2.81  52 2.81  67 2.81  63 2.81
                            65 2.81
  52  0.250  0.500  0.000-  11 2.81   9 2.81  12 2.81  23 2.81  50 2.81  53 2.81  51 2.81  63 2.81
                            64 2.81
  53  0.333  0.583  0.000-  12 2.81  51 2.81  52 2.81  58 2.81  64 2.81  65 2.81  66 2.81 145 2.81
                            54 2.81
  54  0.417  0.667  0.000- 151 2.81 146 2.81 158 2.81  59 2.81 145 2.81  70 2.81  66 2.81  58 2.81
                            53 2.81
  55  0.000  0.750  0.000- 150 2.81  56 2.81 155 2.81  51 2.81  50 2.81 156 2.81  67 2.81  62 2.81
                           168 2.81
  56  0.083  0.833  0.000- 156 2.81  58 2.81  55 2.81  57 2.81  51 2.81   1 2.81  67 2.81  68 2.81
                            69 2.81
  57  0.167  0.917  0.000-   1 2.81  56 2.81   2 2.81  58 2.81  13 2.81  69 2.81  71 2.81  59 2.81
                             4 2.81
  58  0.250  0.750  0.000-  51 2.81  56 2.81  53 2.81  57 2.81  65 2.81  69 2.81  70 2.81  59 2.81
                            54 2.81
  59  0.333  0.833  0.000- 151 2.81  60 2.81  72 2.81  54 2.81   4 2.81  70 2.81  71 2.81  57 2.81
                            58 2.81
[...]
   -.944E+01 0.171E+02 0.842E+03   0.953E+01 -.171E+02 -.842E+03   -.111E+00 0.104E+00 -.139E+00   -.168E-01 0.145E-02 0.228E+00
   0.199E+02 0.169E+02 -.610E+03   -.200E+02 -.170E+02 0.609E+03   0.778E-02 -.297E-01 0.437E+00   -.653E-03 0.431E-01 0.259E+00
   0.310E+02 -.159E+01 -.595E+03   -.310E+02 0.164E+01 0.594E+03   -.124E-01 -.661E-01 0.454E+00   0.197E-03 0.517E-02 0.256E+00
   0.388E+02 0.433E+02 -.565E+03   -.388E+02 -.433E+02 0.564E+03   0.802E-01 -.583E-01 0.428E+00   -.347E-01 0.347E-01 0.264E+00
   0.265E+02 0.297E+02 -.562E+03   -.266E+02 -.297E+02 0.561E+03   0.337E-01 0.297E-01 0.462E+00   0.305E-02 -.109E-01 0.261E+00
   0.997E+01 -.685E+01 -.561E+03   -.998E+01 0.689E+01 0.561E+03   -.186E-01 0.311E-01 0.487E+00   0.315E-01 -.706E-01 0.246E+00
   0.316E+01 0.523E+02 -.517E+03   -.315E+01 -.522E+02 0.516E+03   0.642E-02 -.481E-01 0.466E+00   -.823E-02 -.279E-01 0.248E+00
   0.383E+02 0.436E+02 -.519E+03   -.382E+02 -.436E+02 0.518E+03   -.463E-01 -.902E-01 0.526E+00   -.532E-01 0.452E-01 0.251E+00
   0.327E+02 0.506E+02 -.491E+03   -.326E+02 -.505E+02 0.490E+03   -.239E-01 -.124E+00 0.505E+00   -.313E-01 0.202E-01 0.261E+00
   0.356E+02 0.160E+02 -.483E+03   -.346E+02 -.160E+02 0.483E+03   -.943E+00 -.882E-02 -.147E+00   -.548E-01 0.281E-01 0.237E+00
   0.137E+02 0.375E+02 -.469E+03   -.132E+02 -.373E+02 0.469E+03   -.461E+00 -.248E+00 -.409E-01   -.382E-01 0.106E-01 0.236E+00
   -.274E+02 0.674E+02 -.495E+03   0.269E+02 -.666E+02 0.495E+03   0.432E+00 -.800E+00 -.170E+00   -.182E-01 -.265E-01 0.238E+00
   -.115E+02 0.144E+02 -.469E+03   0.114E+02 -.144E+02 0.468E+03   0.100E+00 0.188E-01 0.241E+00   -.248E-01 0.217E-01 0.230E+00
   0.149E+02 -.151E+02 -.205E+04   -.149E+02 0.150E+02 0.205E+04   -.223E-01 0.851E-01 0.110E+01   0.684E-02 0.280E-01 0.589E-01
   0.697E+02 0.613E+02 -.200E+04   -.697E+02 -.613E+02 0.200E+04   -.456E-02 -.453E-01 0.108E+01   -.103E-01 0.292E-01 0.547E-01
   0.657E+02 0.131E+03 -.188E+04   -.658E+02 -.132E+03 0.187E+04   0.106E+00 0.104E+00 0.110E+01   -.195E-01 0.149E-01 0.612E-01
   0.527E+02 0.973E+01 -.199E+04   -.527E+02 -.976E+01 0.199E+04   0.298E-02 0.326E-01 0.111E+01   0.155E-01 -.114E-01 0.603E-01
   0.136E+02 0.755E+02 -.196E+04   -.137E+02 -.757E+02 0.196E+04   0.728E-01 0.197E+00 0.107E+01   0.311E-02 -.288E-01 0.613E-01
   -.287E+02 0.147E+03 -.191E+04   0.287E+02 -.148E+03 0.191E+04   -.487E-01 0.102E+01 0.107E+01   -.185E-01 -.368E-01 0.717E-01
   0.107E+03 0.881E+02 -.191E+04   -.107E+03 -.881E+02 0.191E+04   0.105E+00 -.700E-02 0.105E+01   -.216E-01 0.272E-01 0.359E-01
   0.121E+03 0.775E+02 -.174E+04   -.122E+03 -.774E+02 0.174E+04   0.304E+00 -.385E-01 0.116E+01   -.402E-01 0.163E-01 0.518E-01
   0.116E+03 -.624E+01 -.156E+04   -.117E+03 0.588E+01 0.156E+04   0.598E+00 0.357E+00 -.861E+00   -.445E-01 0.585E-02 0.498E-01
   0.296E+02 0.183E+03 -.175E+04   -.303E+02 -.184E+03 0.175E+04   0.746E+00 0.779E+00 0.161E+01   -.300E-01 -.451E-02 0.733E-01
   -.275E+02 0.192E+03 -.156E+04   0.276E+02 -.194E+03 0.156E+04   -.107E+00 0.191E+01 -.750E+00   -.266E-01 -.880E-02 0.720E-01
   -.129E+03 0.666E+02 -.156E+04   0.129E+03 -.663E+02 0.156E+04   -.507E+00 -.358E+00 -.762E+00   0.107E-01 0.198E-01 0.722E-01
   -.332E+00 0.317E+01 0.216E+04   0.239E+00 -.321E+01 -.216E+04   0.495E-01 0.282E-02 -.116E+01   -.435E-01 0.229E-01 0.677E-01
   -.403E+01 -.116E+02 0.216E+04   0.407E+01 0.116E+02 -.216E+04   -.247E-01 0.118E-01 -.118E+01   -.332E-01 -.856E-02 0.496E-01
   0.328E+00 -.200E+02 0.216E+04   -.231E+00 0.201E+02 -.216E+04   -.181E-01 -.646E-03 -.117E+01   -.157E-01 -.835E-02 0.396E-01
   -.136E+01 -.355E+01 0.216E+04   0.141E+01 0.356E+01 -.216E+04   -.143E-01 0.696E-02 -.120E+01   -.297E-01 0.265E-02 0.351E-01
   0.357E+01 -.897E+01 0.216E+04   -.351E+01 0.904E+01 -.216E+04   -.297E-01 -.114E-01 -.116E+01   0.270E-02 0.888E-02 0.344E-01
   0.788E+01 -.119E+02 0.216E+04   -.785E+01 0.120E+02 -.216E+04   -.476E-01 -.248E-01 -.116E+01   0.498E-01 0.461E-02 0.553E-01
   -.738E+01 -.230E+02 0.216E+04   0.740E+01 0.231E+02 -.216E+04   0.934E-02 -.487E-02 -.120E+01   -.320E-01 -.232E-01 0.469E-01
   0.154E+01 -.214E+02 0.216E+04   -.158E+01 0.215E+02 -.216E+04   0.239E-01 -.126E-01 -.117E+01   -.164E-03 -.158E-01 0.385E-01
   0.110E+02 -.130E+02 0.216E+04   -.111E+02 0.130E+02 -.216E+04   0.110E-01 0.112E-01 -.122E+01   0.158E-01 -.133E-02 0.428E-01
   0.863E+01 -.211E+02 0.216E+04   -.857E+01 0.212E+02 -.216E+04   -.266E-01 -.548E-01 -.114E+01   0.118E-01 -.186E-02 0.413E-01
   0.121E+02 -.176E+02 0.216E+04   -.122E+02 0.175E+02 -.216E+04   -.273E-02 0.110E-01 -.124E+01   0.376E-01 -.101E-01 0.546E-01
   0.727E+01 -.120E+02 0.216E+04   -.734E+01 0.120E+02 -.216E+04   0.107E-01 0.144E-01 -.122E+01   0.375E-01 -.289E-01 0.634E-01
[...]
   0.126E+02 -.162E+01 -.797E+03   -.128E+02 0.146E+01 0.798E+03   0.291E+00 0.162E+00 -.992E+00   -.635E-02 0.804E-03 -.311E-01
   0.444E+02 -.160E+03 -.858E+03   -.465E+02 0.161E+03 0.863E+03   0.213E+01 -.114E+01 -.462E+01   -.445E-02 -.141E-02 -.302E-01
   -.326E+02 -.630E+01 -.740E+03   0.366E+02 0.821E+01 0.738E+03   -.402E+01 -.188E+01 0.153E+01   -.174E-02 0.138E-02 -.445E-01
   0.154E+03 0.204E+02 -.711E+03   -.161E+03 -.219E+02 0.713E+03   0.750E+01 0.140E+01 -.209E+01   -.109E-02 0.257E-02 -.497E-01
   0.180E+02 0.159E+03 -.663E+03   -.178E+02 -.161E+03 0.663E+03   -.185E+00 0.124E+01 0.285E+00   -.161E-02 0.323E-02 -.482E-01
   0.143E+03 0.990E+02 -.632E+03   -.144E+03 -.993E+02 0.632E+03   0.644E+00 0.285E+00 0.151E+00   -.149E-02 0.318E-02 -.494E-01
   -.335E+02 -.316E+03 -.105E+04   0.110E+02 0.351E+03 0.106E+04   0.226E+02 -.350E+02 -.112E+02   -.736E-02 -.727E-02 -.828E-01
   -.701E+02 0.191E+03 -.103E+04   0.933E+02 -.226E+03 0.103E+04   -.232E+02 0.352E+02 -.312E+01   0.808E-02 0.412E-02 -.830E-01
   0.607E+02 -.177E+03 -.112E+04   -.809E+02 0.214E+03 0.112E+04   0.201E+02 -.363E+02 0.419E+01   -.210E-03 -.987E-03 -.638E-01
   -.217E+03 0.231E+03 -.104E+04   0.249E+03 -.274E+03 0.103E+04   -.323E+02 0.423E+02 0.124E+02   -.127E-01 -.119E-02 -.882E-01
   0.245E+03 -.385E+03 -.102E+04   -.278E+03 0.429E+03 0.102E+04   0.331E+02 -.441E+02 0.149E+01   0.109E-01 -.555E-03 -.856E-01
   -.203E+03 0.401E+03 -.118E+04   0.229E+03 -.447E+03 0.119E+04   -.262E+02 0.461E+02 -.163E+02   -.316E-02 0.410E-02 -.594E-01
   0.165E+03 -.298E+03 -.117E+04   -.191E+03 0.344E+03 0.119E+04   0.269E+02 -.453E+02 -.178E+02   -.120E-02 -.460E-02 -.732E-01
   -.311E+02 0.246E+03 -.111E+04   0.513E+02 -.282E+03 0.111E+04   -.202E+02 0.358E+02 0.502E+01   -.340E-02 0.609E-02 -.690E-01
   -.138E+01 -.530E+00 0.370E+02   0.461E-11 -.477E-11 -.955E-11   0.132E+01 0.566E+00 -.629E+02   -.395E-01 0.627E-02 0.267E+02

 POSITION                                       TOTAL-FORCE (eV/Angst)
      0.00000      0.00000      0.00000        -0.013081      0.002697      0.010590
      2.42992      1.40291      0.00000        -0.003994     -0.019088      0.015958
      4.85984      2.80583      0.00000        -0.000847     -0.000513      0.038182
      4.85984      0.00000      0.00000        -0.005616     -0.022599      0.004912
      7.28975      1.40291      0.00000         0.000111      0.000416      0.024288
      9.71967      2.80583      0.00000         0.057754     -0.039378      0.010297
     21.86926      4.20874      0.00000        -0.002681     -0.006690      0.021952
      4.85984      5.61166      0.00000        -0.084092      0.029225     -0.038931
      7.28975      7.01457      0.00000        -0.060701      0.002891      0.021865
      7.28975      4.20874      0.00000        -0.010963      0.000017      0.032096
      9.71967      5.61166      0.00000         0.008948     -0.016012     -0.002505
     12.14959      7.01457      0.00000         0.034203     -0.004269      0.001113
      1.61995      0.00000      2.29095         0.015746      0.034880     -0.008014
      1.61995      2.80583      2.29095        -0.008038      0.015550     -0.012291
      4.04986      1.40291      2.29095        -0.001670      0.036173     -0.016865
      6.47978      0.00000      2.29095         0.019647      0.016819     -0.005143
      6.47978      2.80583      2.29095         0.027553      0.005312     -0.071354
      8.90970      1.40291      2.29095         0.004140      0.023726     -0.075869
      4.04986      4.20874      2.29095         0.030402      0.020560     -0.070169
     23.48921      7.01457      2.29095         0.157062      0.001451      0.008732
      6.47978      5.61166      2.29095         0.091912      0.133732      0.101061
      8.90970      4.20874      2.29095         0.024462      0.106173      0.035451
      8.90970      7.01457      2.29095         0.014462      0.005704      0.342325
     11.33962      5.61166      2.29095        -0.046255      0.071417      0.207183
     20.24975      1.41102      4.54386        -0.001722     -0.001629      0.000506
      3.24515      0.01435      4.54333         0.001882     -0.001856      0.003132
      3.23002      2.81641      4.54005        -0.002728     -0.001092     -0.001451
      5.66748      1.40140      4.53850         0.000598      0.003287     -0.000767
     17.82973     16.82256      4.53810        -0.000204      0.001514      0.000329
      8.10171      2.78654      4.52750         0.004960     -0.007391      0.002294
      3.24714      5.61709      4.53090        -0.000578     -0.000134      0.001342
      5.66779      4.20962      4.52180        -0.001168      0.000018     -0.000334
      5.74134      7.01348      4.58930        -0.003533     -0.000519     -0.001251
      8.12998      5.60693      4.59104        -0.002911     -0.003357      0.003397
     10.51719      4.21758      4.56287        -0.001443      0.007445     -0.001002
     10.51024      7.01444      4.60748         0.001405     -0.001212      0.003484
      0.00671      0.01032      6.83867        -0.000254     -0.002709     -0.000434
      2.42658      1.41068      6.83908        -0.001369     -0.001152      0.000481
      4.84037      2.78881      6.82308         0.001513     -0.000146     -0.003138
     14.57911     16.83199      6.84270         0.006211     -0.004059     -0.001994
      7.28408      1.35642      6.82834        -0.003782     -0.002657     -0.000398
      9.73375      2.67533      6.80566         0.001802      0.001397     -0.001643
     21.86252      4.21215      6.84005         0.003000      0.000033     -0.002789
      4.84677      5.60375      6.80888        -0.001243     -0.000081     -0.000797
      7.32157      6.98334      6.96781        -0.003201     -0.001732      0.008583
      7.24388      4.12348      6.78652         0.001919      0.003330     -0.005677
      9.75159      5.42001      6.93218        -0.003644     -0.000620      0.002159
     12.11884      7.04265      6.93236        -0.004863      0.000091     -0.000855
      4.85984      8.41748      0.00000        -0.087229     -0.017779     -0.037249
      7.28975      9.82040      0.00000        -0.010275      0.001489      0.028679
      9.71967     11.22331      0.00000         0.063307      0.041412      0.003459
      9.71967      8.41748      0.00000         0.010041      0.020987      0.006971
     12.14959      9.82040      0.00000         0.037504      0.069019      0.002522
     14.57951     11.22331      0.00000         0.032445      0.052452     -0.048581
      7.28975     12.62622      0.00000         0.003162      0.004627      0.019161
      9.71967     14.02914      0.00000        -0.008100     -0.006931      0.014563
     12.14959     15.43205      0.00000        -0.027600     -0.014239      0.006764
     12.14959     12.62622      0.00000         0.045075      0.064655     -0.067967
     14.57951     14.02914      0.00000        -0.015148     -0.028238      0.004768
     17.00943     15.43205      0.00000        -0.014576     -0.014561      0.010716
[...]
      9.09282      5.72254      8.96944         0.013965      0.007747     -0.004643
      8.24092      6.93133      8.95921        -0.024647     -0.001030      0.007155
      8.97991      8.20833      8.98662         0.015180     -0.005565     -0.000195
      6.94830      6.89430      9.75081         0.009102      0.007183     -0.007836
      5.16642      5.41377     10.35756        -0.011291     -0.005743      0.000767
      4.91947      3.91832     10.38882         0.004705      0.015611     -0.009756
      3.44017      3.60114     10.59600        -0.025013      0.000210     -0.009696
     22.83476     13.05257     10.41599         0.017222      0.019070      0.003151
     16.17305     10.04465     10.33297         0.004861     -0.005320     -0.001690
     13.02987      8.32541      9.92755         0.012548      0.009547      0.002749
     23.12677     10.88071      9.80200         0.007673     -0.007212     -0.000510
     15.86911     12.29706     10.22218         0.001332     -0.000012     -0.003492
     13.15631      6.05102     10.07322         0.006113     -0.003224      0.004665
      6.35397      7.88646     10.14637         0.002651     -0.006468      0.001354
      6.54813      5.61568      9.94704        -0.005782     -0.001311     -0.001382
    total drift:                               -0.097962      0.042144      0.855731

  FREE ENERGIE OF THE ION-ELECTRON SYSTEM (eV)
  free  energy   TOTEN  =     -1468.80219273 eV

  energy  without entropy=    -1468.58798268  energy(sigma->0) =    -1468.69508770

[...]

  free energy =  -0.144521023977E+04  energy without entropy=  -0.144499605167E+04

[...]

 eigenvalue-minimisations  :  9344
 total energy-change (2. order) : 0.2361555E-04  (-0.5113967E-05)
 number of electron    2078.0000592 magnetization
 augmentation part      604.0240506 magnetization

[...]

 eigenvalues of (default mixing * dielectric matrix)
  average eigenvalue GAMMA=   0.4375
  2.1086  0.7604  0.3379  0.2480  0.1595  0.1197  0.0713  0.0660  0.0660

[...]

--------------------------------------- Iteration      2(  11)  ---------------------------------------

 eigenvalue-minimisations  :  2009
 total energy-change (2. order) :-0.8317118E-05  (-0.1958849E-07)
 number of electron    2078.0000592 magnetization
 augmentation part      604.0242112 magnetization

 DIPCOR: dipole corrections for dipol
 direction  3 min pos   155,
 dipolmoment           0.000000      0.000000     -0.926876 electrons x Angstroem
 Tr[quadrupol]   -136216.539943

 energy correction for charged system         0.000000 eV
 dipol+quadrupol energy correction           -0.012490 eV
 added-field ion interaction        -19.233857 eV  (added to PSCEN)

  free energy =  -0.144521051890E+04  energy without entropy=  -0.144499634745E+04

------------------------ aborting loop because EDIFF is reached ----------------------------------------

  Number of pair interactions contributing to vdW energy: 1215135
  Edisp (eV):  -23.59225

  FORCE on cell =-STRESS in cart. coord.  units (eV):
  Direction    XX          YY          ZZ          XY          YZ          ZX
  Alpha Z  6013.73643  6013.73643  6013.73643
  Ewald  429468.08889423714.31509************  1783.36727   319.90359  -215.14331
  Hartree467878.88704462517.38287************  1545.78571   200.26214  -153.99223
  E(xc)   -9127.41676 -9127.03238 -9188.20566    -0.02668     0.61570    -0.32138
  Local  ************************941903.81270 -3350.79195  -506.39011   363.11484
  n-local   535.02108   524.81456   437.83308     6.44228    -1.00891    -0.21718
  augment 10071.45992 10069.14923 10339.50050     1.04020    -0.71715     1.28134
  Kinetic 30263.17685 30246.21655 31128.92580    14.07142   -12.15000     4.91381
  Fock        0.00000     0.00000     0.00000     0.00000     0.00000     0.00000
  vdW       -31.70551   -31.51295   -26.45662    -0.40551    -0.05275     0.03113
  Total    -213.08757  -207.18524    -3.22614    -0.51726     0.46251    -0.33299
  in kB     -52.16088   -50.71607    -0.78971    -0.12662     0.11322    -0.08151

  FREE ENERGIE OF THE ION-ELECTRON SYSTEM (eV)
  free  energy   TOTEN  =     -1468.80277327 eV

  energy  without entropy=    -1468.58860182  energy(sigma->0) =    -1468.69568755

 d Force = 0.9996009E-04[ 0.196E-04, 0.180E-03]  d Energy = 0.5805426E-03-0.481E-03
 d Force =-0.7866040E+00[-0.787E+00,-0.786E+00]  d Ewald  =-0.7866053E+00 0.129E-05

 Steepest descent step on ions:
 trial-energy change:   -0.000581  1 .order   -0.000100   -0.000180   -0.000020
  (g-gl).g = 0.180E-03      g.g   = 0.180E-03  gl.gl    = 0.000E+00
 g(Force)  = 0.180E-03   g(Stress)= 0.000E+00 ortho     = 0.000E+00
 gamma     =   0.00000
 trial     =   1.00000
 opt step  =   1.00640  (harmonic =   1.12192) maximal distance =0.00037879
 next E    = -1468.802773   (d E  =  -0.00058)

 reached required accuracy - stopping structural energy minimisation