 vasp.5.4.4.18Apr17-6-g9f103f2a35 (build Jun 30 2017 19:19:18) complex

 executed on         MareNostrum4 date 2022.04.12  11:02:58

 INCAR:
 POTCAR:    PAW_PBE Ag 02Apr2005
 POTCAR:    PAW_PBE O 08Apr2002
 POTCAR:    PAW_PBE C 08Apr2002
 POTCAR:    PAW_PBE N 08Apr2002
 POTCAR:    PAW_PBE H 15Jun2001

 POTCAR:    PAW_PBE Ag 02Apr2005

[...]

 POTCAR:    PAW_PBE N 08Apr2002

 POTCAR:    PAW_PBE H 15Jun2001

 Optimization of the real space projectors (new method)

 maximal supplied QI-value         = 15.12
 optimisation between [QCUT,QGAM] = [ 10.73, 21.62] = [ 32.26,130.87] Ry
 Optimized for a Real-space Cutoff    1.42 Angstroem

   l    n(q)    QCUT    max X(q) W(low)/X(q) W(high)/X(q)  e(spline)
   2      8    10.734    53.897    0.46E-03    0.48E-03    0.17E-06
   2      8    10.734    52.416    0.47E-03    0.50E-03    0.17E-06
   0      9    10.734   122.045    0.16E-03    0.13E-03    0.44E-07
   0      9    10.734    73.629    0.16E-03    0.13E-03    0.43E-07
   1      9    10.734    15.255    0.66E-04    0.32E-03    0.15E-06
   1      9    10.734     9.562    0.55E-04    0.26E-03    0.12E-06
 Optimization of the real space projectors (new method)

[...]

   l    n(q)    QCUT    max X(q) W(low)/X(q) W(high)/X(q)  e(spline)
   0      8    10.807    79.467    0.34E-03    0.68E-03    0.21E-06
   0      8    10.807    66.151    0.34E-03    0.67E-03    0.21E-06
   1      7    10.807    14.030    0.45E-03    0.13E-02    0.11E-05
   1      7    10.807     9.831    0.48E-03    0.13E-02    0.11E-05
 Optimization of the real space projectors (new method)

 maximal supplied QI-value         = 34.20
 optimisation between [QCUT,QGAM] = [ 10.60, 21.55] = [ 31.48,130.03] Ry
 Optimized for a Real-space Cutoff    1.23 Angstroem

   l    n(q)    QCUT    max X(q) W(low)/X(q) W(high)/X(q)  e(spline)
   0      8    10.603    19.460    0.37E-03    0.59E-03    0.23E-06
   0      8    10.603    12.209    0.35E-03    0.56E-03    0.22E-06
   1      7    10.603     4.655    0.70E-04    0.28E-03    0.29E-06
  PAW_PBE Ag 02Apr2005                  :
  PAW_PBE O 08Apr2002                   :
  PAW_PBE C 08Apr2002                   :
  PAW_PBE N 08Apr2002                   :
  PAW_PBE H 15Jun2001                   :

 POSCAR: Ag  O  C  N  H
  positions in direct lattice
  velocities in cartesian coordinates
 exchange correlation table for  LEXCH =        8
   RHO(1)=    0.500       N(1)  =     2000
   RHO(2)=  100.500       N(2)  =     4000

 ion  position               nearest neighbor table
   1  0.000  0.000  0.000-  28 2.89   4 2.89   3 2.89  35 2.89  10 2.89   2 2.89  70 2.89  40 2.89
                            47 2.89
   2  1.000  0.167  0.000-  27 2.89   8 2.89   5 2.89  28 2.89   3 2.89   1 2.89  39 2.89  61 2.89
                            40 2.89
   3  0.167  0.167  0.000-  14 2.89  17 2.89   8 2.89   2 2.89   1 2.89   4 2.89  38 2.89  40 2.89
                            37 2.89
   4  0.167  0.000  0.000-  13 2.89  14 2.89   1 2.89  11 2.89  10 2.89   3 2.89  37 2.89  47 2.89
                            46 2.89
   5  0.000  0.333  0.000-   8 2.89  27 2.89   2 2.89  32 2.89   6 2.89   7 2.89  62 2.89  44 2.89
                            39 2.89
   6  0.000  0.500  0.000-  12 2.89   7 2.89   9 2.89  31 2.89   5 2.89  32 2.89  43 2.89  65 2.89
                            44 2.89
   7  0.167  0.500  0.000-   6 2.89  18 2.89  21 2.89  12 2.89   5 2.89   8 2.89  42 2.89  44 2.89
                            41 2.89
   8  0.167  0.333  0.000-   5 2.89   2 2.89   3 2.89  17 2.89  18 2.89   7 2.89  39 2.89  41 2.89
                            38 2.89
   9  0.000  0.667  0.000-  12 2.89  36 2.89  31 2.89  11 2.89   6 2.89  10 2.89  66 2.89  48 2.89
                            43 2.89
  10  1.000  0.833  0.000-  36 2.89  35 2.89   9 2.89  11 2.89   1 2.89   4 2.89  69 2.89  47 2.89
                            48 2.89
  11  0.167  0.833  0.000-  22 2.89   9 2.89  12 2.89  10 2.89   4 2.89  13 2.89  46 2.89  48 2.89
                            45 2.89
  12  0.167  0.667  0.000-   6 2.89   9 2.89  22 2.89  11 2.89   7 2.89  21 2.89  43 2.89  45 2.89
                            42 2.89
  13  0.333  0.000  0.000-   4 2.89  16 2.89  15 2.89  22 2.89  11 2.89  14 2.89  46 2.89  52 2.89
                            59 2.89
  14  0.333  0.167  0.000-   3 2.89  17 2.89   4 2.89  20 2.89  15 2.89  13 2.89  51 2.89  37 2.89
                            52 2.89
  15  0.500  0.167  0.000-  26 2.89  20 2.89  29 2.89  14 2.89  13 2.89  16 2.89  50 2.89  52 2.89
                            49 2.89
  16  0.500  0.000  0.000-  25 2.89  26 2.89  13 2.89  23 2.89  22 2.89  15 2.89  49 2.89  59 2.89
                            58 2.89
  17  0.333  0.333  0.000-  14 2.89   3 2.89   8 2.89  20 2.89  19 2.89  18 2.89  38 2.89  56 2.89
                            51 2.89
  18  0.333  0.500  0.000-   7 2.89  21 2.89  24 2.89  19 2.89   8 2.89  17 2.89  55 2.89  41 2.89
                            56 2.89
  19  0.500  0.500  0.000-  30 2.89  24 2.89  33 2.89  18 2.89  17 2.89  20 2.89  54 2.89  56 2.89
                            53 2.89
  20  0.500  0.333  0.000-  29 2.89  15 2.89  30 2.89  14 2.89  17 2.89  19 2.89  53 2.89  51 2.89
                            50 2.89
  21  0.333  0.667  0.000-  18 2.89  23 2.89   7 2.89  22 2.89  12 2.89  24 2.89  42 2.89  60 2.89
                            55 2.89
  22  0.333  0.833  0.000-  11 2.89  12 2.89  21 2.89  23 2.89  13 2.89  16 2.89  45 2.89  59 2.89
                            60 2.89
  23  0.500  0.833  0.000-  34 2.89  21 2.89  24 2.89  22 2.89  25 2.89  16 2.89  58 2.89  60 2.89
                            57 2.89
  24  0.500  0.667  0.000-  34 2.89  33 2.89  19 2.89  23 2.89  18 2.89  21 2.89  57 2.89  55 2.89
                            54 2.89
  25  0.667  0.000  0.000-  16 2.89  28 2.89  23 2.89  27 2.89  34 2.89  26 2.89  58 2.89  64 2.89
                            71 2.89
  26  0.667  0.167  0.000-  15 2.89  32 2.89  29 2.89  16 2.89  27 2.89  25 2.89  63 2.89  49 2.89
                            64 2.89
  27  0.833  0.167  0.000-   2 2.89   5 2.89  32 2.89  26 2.89  25 2.89  28 2.89  62 2.89  64 2.89
                            61 2.89
  28  0.833  0.000  0.000-   1 2.89   2 2.89  25 2.89  35 2.89  34 2.89  27 2.89  61 2.89  71 2.89
                            70 2.89
  29  0.667  0.333  0.000-  20 2.89  32 2.89  15 2.89  26 2.89  31 2.89  30 2.89  50 2.89  68 2.89
                            63 2.89
  30  0.667  0.500  0.000-  19 2.89  33 2.89  20 2.89  36 2.89  31 2.89  29 2.89  67 2.89  53 2.89
                            68 2.89
  31  0.833  0.500  0.000-   9 2.89  36 2.89  30 2.89   6 2.89  32 2.89  29 2.89  66 2.89  68 2.89
                            65 2.89
  32  0.833  0.333  0.000-  29 2.89  26 2.89  27 2.89   5 2.89  31 2.89   6 2.89  63 2.89  65 2.89
                            62 2.89
  33  0.667  0.667  0.000-  24 2.89  19 2.89  30 2.89  35 2.89  34 2.89  36 2.89  54 2.89  72 2.89
                            67 2.89
  34  0.667  0.833  0.000-  24 2.89  23 2.89  33 2.89  35 2.89  25 2.89  28 2.89  57 2.89  71 2.89
                            72 2.89
  35  0.833  0.833  0.000-  10 2.89  33 2.89  36 2.89  34 2.89   1 2.89  28 2.89  70 2.89  72 2.89
                            69 2.89
  36  0.833  0.667  0.000-  10 2.89   9 2.89  31 2.89  35 2.89  30 2.89  33 2.89  69 2.89  67 2.89
                            66 2.89
  37  0.222  0.111  0.107-  52 2.89  51 2.89  38 2.89  40 2.89  46 2.89  47 2.89  14 2.89   4 2.89
                             3 2.89  76 2.91  75 2.92  74 2.92
  38  0.222  0.278  0.107-  51 2.89  37 2.89  56 2.89  40 2.89  39 2.89  41 2.89   3 2.89  17 2.89
                             8 2.89  76 2.91  79 2.92  73 2.92
  39  0.056  0.278  0.107-  62 2.89  61 2.89  40 2.89  38 2.89  44 2.89  41 2.89   2 2.89   8 2.89
                             5 2.89  78 2.90 100 2.92  73 2.92
  40  0.056  0.111  0.107-  61 2.89  39 2.89  70 2.89  38 2.89  37 2.89  47 2.89   1 2.89   3 2.89
                             2 2.89  99 2.92  73 2.92  74 2.92
  41  0.222  0.444  0.107-  56 2.89  55 2.89  42 2.89  44 2.89  39 2.89  38 2.89  18 2.89   8 2.89
                             7 2.89  78 2.91  80 2.91  79 2.92
  42  0.222  0.611  0.107-  55 2.89  41 2.89  60 2.89  44 2.89  43 2.89  45 2.89   7 2.89  21 2.89
                            12 2.89  77 2.90  83 2.91  80 2.91
  43  0.056  0.611  0.107-  66 2.89  65 2.89  44 2.89  42 2.89  48 2.89  45 2.89   6 2.89  12 2.89
                             9 2.89  77 2.90 104 2.90  82 2.91
  44  0.056  0.444  0.107-  65 2.89  43 2.89  62 2.89  42 2.89  41 2.89  39 2.89   5 2.89   7 2.89
                             6 2.89  77 2.90 103 2.91  78 2.91
  45  0.222  0.778  0.107-  60 2.89  59 2.89  46 2.89  48 2.89  42 2.89  43 2.89  22 2.89  12 2.89
                            11 2.89  82 2.91  83 2.91  84 2.91
  46  0.222  0.944  0.107-  59 2.89  45 2.89  52 2.89  48 2.89  47 2.89  37 2.89  13 2.89  11 2.89
                             4 2.89  84 2.91  81 2.92  75 2.92
  47  0.056  0.944  0.107-  70 2.89  69 2.89  48 2.89  46 2.89  40 2.89  37 2.89  10 2.89   4 2.89
                             1 2.89 108 2.91  81 2.92  74 2.92
  48  0.056  0.778  0.107-  69 2.89  47 2.89  66 2.89  46 2.89  45 2.89  43 2.89  11 2.89   9 2.89
                            10 2.89 107 2.90  82 2.91  81 2.92
  49  0.556  0.111  0.107-  64 2.89  63 2.89  50 2.89  52 2.89  58 2.89  59 2.89  26 2.89  16 2.89
                            15 2.89  88 2.90  86 2.91  87 2.91
  50  0.556  0.278  0.107-  63 2.89  49 2.89  68 2.89  52 2.89  51 2.89  53 2.89  15 2.89  29 2.89
                            20 2.89  88 2.90  91 2.91  85 2.91
  51  0.389  0.278  0.107-  90 2.89  38 2.89  37 2.89  52 2.89  50 2.89  53 2.89  56 2.89  14 2.89
                            20 2.89  17 2.89  85 2.90  76 2.92
  52  0.389  0.111  0.107-  37 2.89  51 2.89  46 2.89  50 2.89  49 2.89  59 2.89  13 2.89  15 2.89
                            14 2.89  85 2.90  86 2.91  75 2.92
  53  0.556  0.444  0.107-  68 2.89  67 2.89  54 2.89  56 2.89  51 2.89  50 2.89  30 2.89  20 2.89
                            19 2.89  92 2.90  90 2.90  91 2.90
  54  0.556  0.611  0.107-  67 2.89  53 2.89  72 2.89  56 2.89  55 2.89  57 2.89  19 2.89  33 2.89
                            24 2.89  92 2.90  89 2.90  95 2.90
  55  0.389  0.611  0.107-  89 2.89  42 2.89  41 2.89  56 2.89  54 2.89  60 2.89  57 2.89  18 2.89
                            24 2.89  21 2.89  94 2.90  80 2.91
  56  0.389  0.444  0.107-  41 2.89  55 2.89  38 2.89  54 2.89  53 2.89  51 2.89  17 2.89  19 2.89
                            18 2.89  90 2.89  89 2.90  79 2.92
  57  0.556  0.778  0.107-  72 2.89  71 2.89  58 2.89  60 2.89  54 2.89  55 2.89  34 2.89  24 2.89
                            23 2.89  95 2.89  94 2.90  96 2.90
  58  0.556  0.944  0.107-  71 2.89  57 2.89  64 2.89  60 2.89  59 2.89  49 2.89  25 2.89  23 2.89
                            16 2.89  96 2.90  93 2.91  87 2.91
  59  0.389  0.944  0.107-  46 2.89  45 2.89  60 2.89  58 2.89  52 2.89  49 2.89  22 2.89  16 2.89
                            13 2.89  93 2.90  86 2.90  84 2.91
  60  0.389  0.778  0.107-  45 2.89  59 2.89  42 2.89  58 2.89  57 2.89  55 2.89  23 2.89  21 2.89
[...]
   -.683E+01 -.120E+02 0.260E+04   0.684E+01 0.119E+02 -.260E+04   -.645E-02 0.190E-01 -.163E+01   0.280E-04 0.125E-03 0.252E-02
   -.420E+01 -.153E+02 0.260E+04   0.419E+01 0.153E+02 -.260E+04   0.937E-02 -.283E-02 -.162E+01   0.276E-05 0.816E-04 0.234E-02
   -.844E+01 -.146E+02 0.259E+04   0.845E+01 0.146E+02 -.259E+04   -.181E-01 -.181E-01 -.161E+01   0.926E-04 0.102E-03 0.227E-02
   -.107E+02 -.117E+02 0.260E+04   0.107E+02 0.117E+02 -.260E+04   -.116E-01 -.231E-02 -.169E+01   0.116E-03 0.149E-03 0.239E-02
   0.117E+02 0.189E+02 0.942E+03   -.117E+02 -.189E+02 -.941E+03   0.777E-02 -.270E-02 -.410E+00   -.511E-04 -.291E-04 0.788E-02
   0.158E+02 0.268E+02 0.954E+03   -.158E+02 -.267E+02 -.954E+03   -.729E-02 -.645E-02 -.379E+00   -.370E-04 0.711E-04 0.794E-02
   0.490E+01 0.190E+02 0.945E+03   -.490E+01 -.189E+02 -.944E+03   0.655E-02 -.299E-01 -.467E+00   0.562E-04 0.818E-04 0.788E-02
   0.224E+01 0.846E+01 0.935E+03   -.223E+01 -.846E+01 -.934E+03   -.368E-02 -.334E-02 -.447E+00   0.193E-04 -.133E-04 0.785E-02
   0.174E+02 0.173E+02 0.967E+03   -.174E+02 -.173E+02 -.967E+03   0.731E-02 0.256E-01 -.440E+00   -.694E-05 0.881E-04 0.799E-02
   0.172E+02 -.296E+01 0.966E+03   -.172E+02 0.295E+01 -.966E+03   0.325E-01 0.947E-02 -.536E+00   0.186E-04 0.631E-05 0.795E-02
   0.109E+01 -.836E+01 0.956E+03   -.107E+01 0.836E+01 -.955E+03   -.136E-01 0.874E-02 -.399E+00   0.480E-04 0.541E-04 0.793E-02
   0.442E+01 0.966E+01 0.956E+03   -.443E+01 -.967E+01 -.956E+03   0.163E-01 0.716E-02 -.438E+00   0.715E-04 0.121E-03 0.792E-02
   0.131E+02 -.113E+02 0.950E+03   -.131E+02 0.113E+02 -.950E+03   0.427E-01 0.125E-01 -.457E+00   0.404E-06 -.794E-04 0.788E-02
   0.103E+02 0.584E+00 0.939E+03   -.103E+02 -.585E+00 -.939E+03   -.123E-01 0.140E-02 -.462E+00   -.251E-04 -.115E-03 0.784E-02
   -.189E+01 -.725E+01 0.935E+03   0.189E+01 0.726E+01 -.934E+03   -.666E-03 -.525E-02 -.419E+00   -.674E-05 -.760E-04 0.785E-02
   -.243E+01 -.165E+02 0.944E+03   0.246E+01 0.165E+02 -.944E+03   -.276E-01 0.101E-01 -.397E+00   0.163E-04 -.475E-04 0.789E-02
   -.376E+01 0.121E+02 0.959E+03   0.377E+01 -.121E+02 -.958E+03   -.626E-02 -.156E-02 -.460E+00   -.248E-04 -.886E-04 0.789E-02
   -.489E+01 0.216E+02 0.978E+03   0.490E+01 -.216E+02 -.978E+03   -.473E-02 0.341E-02 -.533E+00   -.637E-04 0.462E-04 0.797E-02
   0.128E+02 0.304E+02 0.973E+03   -.128E+02 -.304E+02 -.972E+03   0.530E-02 -.389E-01 -.486E+00   -.101E-03 0.408E-04 0.799E-02
   0.101E+02 0.209E+02 0.955E+03   -.100E+02 -.209E+02 -.954E+03   -.118E-01 0.328E-02 -.456E+00   -.763E-04 -.701E-04 0.790E-02
   -.377E+01 0.110E+02 0.996E+03   0.378E+01 -.110E+02 -.996E+03   -.846E-02 -.102E-01 -.554E+00   -.727E-04 0.996E-04 0.809E-02
   -.738E-01 -.115E+02 0.997E+03   0.101E+00 0.115E+02 -.996E+03   -.229E-01 -.125E-01 -.473E+00   -.574E-04 0.362E-04 0.811E-02
   0.186E+02 -.416E+01 0.987E+03   -.186E+02 0.417E+01 -.986E+03   -.260E-01 -.193E-02 -.616E+00   -.603E-04 0.847E-05 0.806E-02
   0.168E+02 0.187E+02 0.987E+03   -.168E+02 -.188E+02 -.986E+03   -.246E-01 0.350E-01 -.408E+00   -.938E-04 0.790E-04 0.809E-02
   0.324E+01 -.247E+02 0.978E+03   -.324E+01 0.247E+02 -.978E+03   -.295E-02 0.167E-01 -.521E+00   -.371E-04 -.837E-04 0.800E-02
   0.135E+01 -.132E+02 0.958E+03   -.135E+01 0.132E+02 -.957E+03   -.675E-02 -.194E-01 -.459E+00   -.928E-05 -.163E-03 0.789E-02
   0.116E+02 -.130E+01 0.951E+03   -.116E+02 0.135E+01 -.951E+03   0.468E-03 -.537E-01 -.457E+00   -.398E-04 -.166E-03 0.787E-02
   0.164E+02 -.151E+02 0.967E+03   -.164E+02 0.151E+02 -.967E+03   -.293E-01 0.524E-02 -.573E+00   -.217E-04 -.117E-03 0.793E-02
[...]
   -.360E+02 0.790E+02 -.197E+03   0.413E+02 -.835E+02 0.200E+03   -.524E+01 0.440E+01 -.316E+01   -.764E-05 0.232E-03 -.495E-03
   -.881E+01 -.117E+03 -.203E+03   0.959E+01 0.124E+03 0.203E+03   -.773E+00 -.746E+01 0.531E+00   -.337E-04 -.288E-03 -.313E-03
   0.415E+02 0.517E+02 -.190E+03   -.424E+02 -.560E+02 0.187E+03   0.813E+00 0.430E+01 0.314E+01   0.160E-03 0.108E-03 -.202E-03
   0.655E+02 -.402E+02 -.198E+03   -.689E+02 0.441E+02 0.196E+03   0.341E+01 -.396E+01 0.192E+01   0.193E-03 -.713E-04 -.271E-03
   0.508E+02 0.143E+02 -.215E+03   -.525E+02 -.155E+02 0.220E+03   0.168E+01 0.125E+01 -.494E+01   0.199E-03 0.344E-04 -.490E-03
   0.639E+02 0.476E+02 -.193E+03   -.705E+02 -.507E+02 0.192E+03   0.664E+01 0.308E+01 0.148E+01   0.718E-04 0.832E-04 -.169E-03
   -.835E+02 -.287E+02 -.215E+03   0.889E+02 0.303E+02 0.215E+03   -.549E+01 -.165E+01 -.127E+00   -.291E-03 -.875E-04 -.298E-03
   0.705E+02 0.429E+02 -.214E+03   -.759E+02 -.445E+02 0.214E+03   0.542E+01 0.164E+01 0.466E-01   0.230E-03 0.145E-03 -.260E-03
   -.229E+02 0.452E+02 -.221E+03   0.226E+02 -.477E+02 0.226E+03   0.404E+00 0.250E+01 -.481E+01   -.128E-03 0.142E-03 -.478E-03
   -.272E+02 0.596E+02 -.194E+03   0.272E+02 -.634E+02 0.191E+03   0.671E-01 0.378E+01 0.378E+01   -.115E-03 0.158E-03 -.156E-03
   -.785E+02 -.550E+01 -.205E+03   0.835E+02 0.774E+01 0.205E+03   -.504E+01 -.229E+01 0.331E+00   -.224E-03 0.344E-04 -.313E-03
   -.402E+02 0.874E+02 -.202E+03   0.454E+02 -.924E+02 0.200E+03   -.520E+01 0.499E+01 0.173E+01   -.664E-04 0.235E-03 -.239E-03
   0.768E+02 0.569E+02 -.198E+03   -.834E+02 -.589E+02 0.196E+03   0.662E+01 0.193E+01 0.264E+01   0.143E-03 0.189E-03 -.218E-03
   -.553E+02 -.676E+02 -.214E+03   0.566E+02 0.734E+02 0.214E+03   -.131E+01 -.585E+01 0.393E-01   -.177E-03 -.220E-03 -.257E-03
   0.381E+02 0.271E+02 0.792E+01   -.220E-12 -.158E-11 -.797E-10   -.382E+02 -.272E+02 -.770E+01   0.252E-03 -.185E-04 0.816E+00

 POSITION                                       TOTAL-FORCE (eV/Angst)
      0.00000      0.00000      0.00000        -0.002742     -0.000490     -0.127909
     15.90463      2.50433      0.00000        -0.001480      0.003230     -0.131127
      1.44588      2.50433      0.00000         0.000852      0.004958     -0.129179
      2.89175      0.00000      0.00000         0.002010     -0.002681     -0.130593
     -2.89175      5.00866      0.00000        -0.000497      0.001661     -0.131670
     -4.33763      7.51299      0.00000        -0.000751     -0.001463     -0.128469
     -1.44588      7.51299      0.00000        -0.006362     -0.002831     -0.132496
     -0.00000      5.00866      0.00000         0.000149     -0.000786     -0.128559
     -5.78350     10.01732      0.00000         0.002588     -0.000145     -0.126431
     10.12113     12.52165      0.00000         0.000368     -0.002394     -0.128804
     -4.33763     12.52165      0.00000        -0.000764     -0.001572     -0.125243
     -2.89175     10.01732      0.00000        -0.008423     -0.002763     -0.127997
      5.78350      0.00000      0.00000         0.000737      0.003893     -0.125351
      4.33763      2.50433      0.00000         0.001014      0.005508     -0.131455
      7.22938      2.50433      0.00000         0.000190     -0.008426     -0.126988
      8.67525      0.00000      0.00000         0.001322      0.004550     -0.127909
      2.89175      5.00866      0.00000         0.001518     -0.000851     -0.127279
      1.44588      7.51299      0.00000         0.006127     -0.003009     -0.128950
      4.33763      7.51299      0.00000        -0.002747     -0.001532     -0.127671
      5.78350      5.00866      0.00000        -0.011108     -0.001735     -0.126734
     -0.00000     10.01732      0.00000         0.004200     -0.003834     -0.128594
     -1.44588     12.52165      0.00000        -0.002572      0.006362     -0.126623
      1.44588     12.52165      0.00000         0.003933      0.005065     -0.129702
      2.89175     10.01732      0.00000         0.001918     -0.000940     -0.127446
     11.56700      0.00000      0.00000         0.000292      0.004102     -0.130251
     10.12113      2.50433      0.00000         0.001765     -0.005951     -0.128350
     13.01288      2.50433      0.00000         0.000060     -0.000591     -0.131262
     14.45875      0.00000      0.00000        -0.000173     -0.001491     -0.128731
      8.67525      5.00866      0.00000         0.003272     -0.003061     -0.128754
      7.22938      7.51299      0.00000        -0.007098      0.002331     -0.129091
     10.12113      7.51299      0.00000         0.012926      0.001555     -0.126121
     11.56700      5.00866      0.00000         0.008245      0.003993     -0.126821
      5.78350     10.01732      0.00000        -0.002120      0.001988     -0.127039
      4.33763     12.52165      0.00000         0.003089      0.001428     -0.129997
      7.22938     12.52165      0.00000        -0.002040      0.003691     -0.123778
      8.67525     10.01732      0.00000         0.003964      0.007926     -0.125500
      2.89178      1.66954      2.36115        -0.004373     -0.003884      0.153160
      1.44590      4.17386      2.36115        -0.002801     -0.000827      0.154253
     -1.44585      4.17386      2.36115         0.004898     -0.012389      0.147901
      0.00003      1.66954      2.36115         0.006210      0.002050      0.160853
      0.00003      6.67819      2.36115         0.006057      0.002161      0.142479
     -1.44585      9.18252      2.36115         0.000102     -0.000486      0.121219
     -4.33760      9.18252      2.36115         0.002217      0.004390      0.117298
     -2.89172      6.67819      2.36115         0.003305     -0.002128      0.122634
     -2.89172     11.68685      2.36115         0.000898     -0.000323      0.133228
     -4.33760     14.19118      2.36115        -0.008370      0.001206      0.138209
     -7.22935     14.19118      2.36115         0.003691      0.006237      0.160388
     -5.78347     11.68685      2.36115        -0.000865      0.013914      0.133411
      8.67528      1.66954      2.36115         0.004527     -0.005473      0.115651
      7.22940      4.17386      2.36115         0.000502      0.005959      0.110382
      4.33765      4.17386      2.36115        -0.015105     -0.015012      0.109265
      5.78353      1.66954      2.36115        -0.007674     -0.006716      0.126071
      5.78353      6.67819      2.36115         0.006306      0.000515      0.094002
      4.33765      9.18252      2.36115         0.005141      0.003758      0.103111
      1.44590      9.18252      2.36115        -0.013681      0.001138      0.090900
      2.89178      6.67819      2.36115        -0.020546     -0.007351      0.117410
      2.89178     11.68685      2.36115        -0.003672      0.003844      0.100388
      1.44590     14.19118      2.36115        -0.004223      0.004752      0.116008
     -1.44585     14.19118      2.36115        -0.003059     -0.002542      0.117805
      0.00003     11.68685      2.36115        -0.002244      0.004419      0.106869
[...]
     -0.19650      6.46034     11.39033        -0.016419      0.006196      0.003118
      1.47030      6.13432     11.63316         0.028386     -0.032177      0.016580
      4.16490     11.25285     10.46117        -0.002921     -0.015856     -0.001388
     -1.55158      7.58410      9.90393        -0.009915     -0.006173     -0.008847
     -2.06177      9.26565     10.16540         0.012937     -0.009472      0.006357
     -1.72995      8.20513     11.56039        -0.004884     -0.002489     -0.000021
      4.39802      7.85396      9.98511        -0.003794     -0.001716      0.000224
      9.77411      7.09885     10.28248        -0.028172     -0.014407     -0.000168
      5.02534      5.70179     10.18707        -0.011169     -0.013099      0.000325
      9.43251      3.89173     11.49280         0.000637     -0.003581     -0.003533
      9.48486      3.61315      9.73834         0.000990      0.002270      0.003183
     10.51571      4.86548     10.45337        -0.026033     -0.009976      0.006627
      7.44545      3.02044     10.12879         0.019802     -0.017794     -0.005559
      5.81559      3.44019     10.00668        -0.010154     -0.009115     -0.004828
      7.99432      8.83763     10.15911        -0.007169     -0.021157      0.002641
    total drift:                               -0.061809     -0.095737      1.032356

  FREE ENERGIE OF THE ION-ELECTRON SYSTEM (eV)
  free  energy   TOTEN  =      -621.16867403 eV

  energy  without entropy=     -621.14587791  energy(sigma->0) =     -621.15727597

[...]

  free energy =  -0.609478028552E+03  energy without entropy=  -0.609455239001E+03

[...]

 d Force = 0.2830832E-03[ 0.130E-03, 0.436E-03]  d Energy = 0.3008377E-03-0.178E-04
 d Force = 0.1576713E+01[ 0.158E+01, 0.158E+01]  d Ewald  = 0.1576714E+01-0.476E-06

 Steepest descent step on ions:
 trial-energy change:   -0.000301  1 .order   -0.000283   -0.000436   -0.000130
  (g-gl).g = 0.436E-03      g.g   = 0.436E-03  gl.gl    = 0.000E+00
 g(Force)  = 0.436E-03   g(Stress)= 0.000E+00 ortho     = 0.000E+00
 gamma     =   0.00000
 trial     =   1.00000
 opt step  =   1.42331  (harmonic =   1.42331) maximal distance =0.00109560
 next E    =  -621.168985   (d E  =  -0.00031)

[...]

 d Force = 0.2731479E-04[-0.310E-06, 0.549E-04]  d Energy = 0.3457446E-04-0.726E-05
 d Force = 0.6671426E+00[ 0.667E+00, 0.667E+00]  d Ewald  = 0.6671422E+00 0.485E-06

[...]

 Conjugate gradient step on ions:
 trial-energy change:   -0.000115  1 .order   -0.000103   -0.000178   -0.000028
  (g-gl).g = 0.166E-03      g.g   = 0.165E-03  gl.gl    = 0.436E-03
 g(Force)  = 0.165E-03   g(Stress)= 0.000E+00 ortho     =-0.733E-06
 gamma     =   0.37932
 trial     =   1.08466
 opt step  =   1.28392  (harmonic =   1.28392) maximal distance =0.00051429
 next E    =  -621.169115   (d E  =  -0.00011)

[...]

 eigenvalue-minimisations  :  5698
 total energy-change (2. order) :-0.2647284E-06  (-0.1957629E-06)
 number of electron    1688.0000641 magnetization
 augmentation part      760.9191296 magnetization

[...]

 eigenvalues of (default mixing * dielectric matrix)
  average eigenvalue GAMMA=   1.2376
  2.1261  0.9187  0.6681

[...]

--------------------------------------- Iteration      6(   5)  ---------------------------------------

 eigenvalue-minimisations  :  1943
 total energy-change (2. order) : 0.4627800E-06  (-0.2194121E-07)
 number of electron    1688.0000641 magnetization
 augmentation part      760.9191296 magnetization

 DIPCOR: dipole corrections for dipol
 direction  3 min pos   169,
 dipolmoment           0.000000      0.000000     -0.632197 electrons x Angstroem
 Tr[quadrupol]    -89638.876456

 energy correction for charged system         0.000000 eV
 dipol+quadrupol energy correction           -0.006349 eV
 added-field ion interaction        -14.562721 eV  (added to PSCEN)

  free energy =  -0.609478412372E+03  energy without entropy=  -0.609455631799E+03

------------------------ aborting loop because EDIFF is reached ----------------------------------------

  Number of pair interactions contributing to vdW energy:  771500
  Edisp (eV):  -11.69078

  FORCE on cell =-STRESS in cart. coord.  units (eV):
  Direction    XX          YY          ZZ          XY          YZ          ZX
  Alpha Z  3399.89633  3399.89633  3399.89633
  Ewald  462689.46411460451.43296************  -961.39973  -555.71041   -52.70162
  Hartree505209.57230503193.28962************  -953.30168  -339.60565  -108.82485
  E(xc)   -8752.49095 -8753.16191 -8784.32065     0.28114    -0.94599     0.40604
  Local  ************************************  1930.58033   872.57661   175.11808
  n-local -1409.42115 -1408.69954 -1453.15245    -0.89707    -0.51515    -0.01585
  augment 13244.15007 13245.07241 13298.21837    -0.85534     0.39783    -0.22335
  Kinetic 21176.28111 21193.32091 21531.46815   -14.41426    23.29839   -13.93914
  Fock        0.00000     0.00000     0.00000     0.00000     0.00000     0.00000
  vdW       -15.72563   -15.59806   -12.79342     0.04782     0.08005     0.00890
  Total       9.28726     8.90100     9.82544     0.04120    -0.42432    -0.17179
  in kB       2.58452     2.47703     2.73429     0.01147    -0.11808    -0.04781

  FREE ENERGIE OF THE ION-ELECTRON SYSTEM (eV)
  free  energy   TOTEN  =      -621.16919652 eV

  energy  without entropy=     -621.14641594  energy(sigma->0) =     -621.15780623

 d Force = 0.5549175E-04[ 0.356E-04, 0.754E-04]  d Energy = 0.6773574E-04-0.122E-04
 d Force = 0.2327292E+01[ 0.233E+01, 0.233E+01]  d Ewald  = 0.2327291E+01 0.133E-05

 Conjugate gradient step on ions:
 trial-energy change:   -0.000068  1 .order   -0.000055   -0.000075   -0.000036
  (g-gl).g = 0.665E-04      g.g   = 0.669E-04  gl.gl    = 0.165E-03
 g(Force)  = 0.669E-04   g(Stress)= 0.000E+00 ortho     = 0.298E-06
 gamma     =   0.40335
 trial     =   1.12451
 opt step  =   2.13029  (harmonic =   2.13029) maximal distance =0.00066683
 next E    =  -621.169200   (d E  =  -0.00007)

 reached required accuracy - stopping structural energy minimisation