 vasp.5.4.4.18Apr17-6-g9f103f2a35 (build Jun 30 2017 19:19:18) complex

 executed on         MareNostrum4 date 2022.12.12  14:49:04

 INCAR:
 POTCAR:    PAW_PBE Ru 04Feb2005
 POTCAR:    PAW_PBE H 15Jun2001
 POTCAR:    PAW_PBE C 08Apr2002

 POTCAR:    PAW_PBE Ru 04Feb2005

 POTCAR:    PAW_PBE H 15Jun2001

 POTCAR:    PAW_PBE C 08Apr2002

 Optimization of the real space projectors (new method)

 maximal supplied QI-value         = 13.98
 optimisation between [QCUT,QGAM] = [ 10.77, 21.68] = [ 32.47,131.56] Ry
 Optimized for a Real-space Cutoff    1.51 Angstroem

   l    n(q)    QCUT    max X(q) W(low)/X(q) W(high)/X(q)  e(spline)
   2      9    10.768    61.733    0.26E-03    0.97E-04    0.28E-06
   2      9    10.768    59.886    0.26E-03    0.10E-03    0.29E-06
   0     10    10.768    23.358    0.12E-03    0.28E-03    0.38E-06
   0     10    10.768    11.320    0.93E-04    0.23E-03    0.31E-06
   1      9    10.768    14.765    0.48E-03    0.21E-03    0.19E-06
   1      9    10.768     8.283    0.36E-03    0.16E-03    0.15E-06
 Optimization of the real space projectors (new method)

[...]

   l    n(q)    QCUT    max X(q) W(low)/X(q) W(high)/X(q)  e(spline)
   0      8    10.603    19.460    0.37E-03    0.59E-03    0.23E-06
   0      8    10.603    12.209    0.35E-03    0.56E-03    0.22E-06
   1      7    10.603     4.655    0.70E-04    0.28E-03    0.29E-06
 Optimization of the real space projectors (new method)

 maximal supplied QI-value         = 25.13
 optimisation between [QCUT,QGAM] = [ 10.81, 21.61] = [ 32.71,130.83] Ry
 Optimized for a Real-space Cutoff    1.23 Angstroem

   l    n(q)    QCUT    max X(q) W(low)/X(q) W(high)/X(q)  e(spline)
   0      8    10.807   115.676    0.36E-03    0.72E-03    0.24E-06
   0      8    10.807    87.132    0.35E-03    0.71E-03    0.24E-06
   1      7    10.807     4.429    0.19E-03    0.39E-03    0.11E-06
   1      7    10.807     2.733    0.14E-03    0.28E-03    0.13E-06
  PAW_PBE Ru 04Feb2005                  :
  PAW_PBE H 15Jun2001                   :
  PAW_PBE C 08Apr2002                   :

 POSCAR: Ru  H  C
  positions in direct lattice
  velocities in cartesian coordinates
 exchange correlation table for  LEXCH =        8
   RHO(1)=    0.500       N(1)  =     2000
   RHO(2)=  100.500       N(2)  =     4000

 ion  position               nearest neighbor table
   1  0.000  0.083  0.000-  14 2.65  13 2.65 114 2.65  57 2.71   2 2.71 101 2.71 102 2.71   3 2.71
                           107 2.71
   2  0.167  0.000  0.000-  69 2.65  14 2.65  16 2.65  57 2.71   1 2.71  60 2.71   4 2.71   3 2.71
                            58 2.71
   3  0.083  0.167  0.000-  19 2.65  15 2.65  14 2.65   7 2.71 107 2.71   1 2.71   8 2.71   2 2.71
                             4 2.71
   4  0.250  0.083  0.000-  17 2.65  16 2.65  15 2.65  60 2.71   5 2.71   6 2.71   2 2.71   8 2.71
                             3 2.71
   5  0.417  0.000  0.000-  72 2.65  17 2.65 109 2.65 153 2.71   4 2.71  97 2.71  60 2.71 151 2.71
                             6 2.71
   6  0.333  0.167  0.000-  22 2.65  18 2.65  17 2.65  10 2.71   8 2.71   4 2.71  11 2.71   5 2.71
                            97 2.71
   7  1.000  0.333  0.000-  19 2.65 120 2.65  20 2.65   3 2.71 107 2.71 108 2.71   8 2.71 149 2.71
                             9 2.71
   8  0.167  0.250  0.000-  22 2.65  15 2.65  20 2.65  10 2.71   6 2.71   3 2.71   7 2.71   4 2.71
                             9 2.71
   9  0.083  0.417  0.000-  21 2.65  61 2.65  20 2.65  49 2.71  50 2.71 149 2.71  10 2.71   8 2.71
                             7 2.71
  10  0.250  0.333  0.000-  22 2.65  23 2.65  21 2.65   6 2.71   8 2.71   9 2.71  11 2.71  50 2.71
                            12 2.71
  11  0.417  0.250  0.000- 115 2.65  18 2.65  23 2.65 103 2.71  99 2.71   6 2.71  10 2.71  97 2.71
                            12 2.71
  12  0.333  0.417  0.000-  24 2.65  64 2.65  23 2.65  52 2.71  53 2.71 103 2.71  50 2.71  11 2.71
                            10 2.71
  13  0.000  0.000  0.107-  81 2.64 125 2.64  25 2.64 101 2.65   1 2.65  57 2.65  14 2.71 168 2.71
                            69 2.71 113 2.71  68 2.71 114 2.71
  14  0.083  0.083  0.107-  25 2.64  26 2.64  27 2.64   1 2.65   2 2.65   3 2.65  69 2.71  13 2.71
                           114 2.71  16 2.71  19 2.71  15 2.71
  15  0.167  0.167  0.107-  27 2.64  28 2.64  32 2.64   8 2.65   3 2.65   4 2.65  20 2.71  22 2.71
                            17 2.71  19 2.71  16 2.71  14 2.71
  16  0.250  0.000  0.107-  84 2.64  26 2.64  28 2.64  60 2.65   4 2.65   2 2.65  17 2.71  72 2.71
                            69 2.71  14 2.71  15 2.71  71 2.71
  17  0.333  0.083  0.107-  29 2.64  30 2.64  28 2.64   4 2.65   5 2.65   6 2.65  72 2.71  16 2.71
                            15 2.71 109 2.71  22 2.71  18 2.71
  18  0.417  0.167  0.107-  30 2.64 121 2.64  35 2.64  11 2.65   6 2.65  97 2.65  23 2.71 115 2.71
                           110 2.71  22 2.71 109 2.71  17 2.71
  19  1.000  0.250  0.107- 131 2.64  27 2.64  31 2.64 107 2.65   7 2.65   3 2.65 114 2.71 119 2.71
                            20 2.71  15 2.71 120 2.71  14 2.71
  20  0.083  0.333  0.107-  33 2.64  31 2.64  32 2.64   8 2.65   7 2.65   9 2.65  15 2.71  22 2.71
                           120 2.71  21 2.71  19 2.71  61 2.71
  21  0.167  0.417  0.107-  34 2.64  33 2.64  74 2.64   9 2.65  50 2.65  10 2.65  62 2.71  61 2.71
                            20 2.71  64 2.71  22 2.71  23 2.71
  22  0.250  0.250  0.107-  34 2.64  32 2.64  30 2.64   8 2.65  10 2.65   6 2.65  15 2.71  20 2.71
                            23 2.71  18 2.71  17 2.71  21 2.71
  23  0.333  0.333  0.107-  34 2.64  35 2.64  36 2.65  11 2.65  10 2.65  12 2.65  18 2.71 115 2.71
                            24 2.71  22 2.71  64 2.71  21 2.71
  24  0.417  0.417  0.107-  77 2.64 127 2.64  36 2.65  12 2.65  53 2.65 103 2.65  65 2.71  64 2.71
                            23 2.71 157 2.71 115 2.71 116 2.71
  25  0.000  0.083  0.213-  37 2.59 138 2.59  38 2.59  14 2.64 114 2.64  13 2.64  27 2.71 131 2.71
                            26 2.71 126 2.71  81 2.71 125 2.71
  26  0.167  0.000  0.214-  93 2.59  38 2.59  40 2.59  14 2.64  69 2.64  16 2.64  84 2.71  25 2.71
                            81 2.71  28 2.71  82 2.71  27 2.71
  27  0.083  0.167  0.214-  38 2.59  43 2.59  39 2.59  19 2.64  15 2.64  14 2.64  25 2.71 131 2.71
                            32 2.71  31 2.71  28 2.71  26 2.71
  28  0.250  0.083  0.214-  41 2.59  40 2.59  39 2.59  16 2.64  17 2.64  15 2.64  84 2.71  32 2.71
                            26 2.71  29 2.71  27 2.71  30 2.71
  29  0.417  0.000  0.213- 133 2.59  96 2.59  41 2.59 109 2.64  17 2.64  72 2.64  30 2.71  28 2.71
                           177 2.71 175 2.71  84 2.71 121 2.71
  30  0.333  0.167  0.214-  41 2.59  42 2.59  46 2.59  18 2.64  17 2.64  22 2.64  29 2.71  35 2.71
                            32 2.71  34 2.71  28 2.71 121 2.71
  31  1.000  0.333  0.214- 144 2.59  44 2.59  43 2.59 120 2.64  19 2.64  20 2.64 173 2.71 131 2.71
                            27 2.71 132 2.71  33 2.71  32 2.72
  32  0.167  0.250  0.214-  44 2.59  39 2.59  46 2.59  22 2.64  15 2.64  20 2.64  33 2.71  34 2.71
                            27 2.71  28 2.71  30 2.71  31 2.72
  33  0.084  0.416  0.214-  45 2.57  85 2.58  44 2.59  21 2.64  20 2.64  61 2.64  74 2.71  34 2.71
                            32 2.71  31 2.71 173 2.72  73 2.72
  34  0.250  0.333  0.213-  47 2.59  45 2.59  46 2.59  22 2.64  21 2.64  23 2.64  33 2.71  35 2.71
                            32 2.71  74 2.71  36 2.71  30 2.71
  35  0.417  0.250  0.214-  47 2.57  42 2.59 139 2.59  23 2.64  18 2.64 115 2.64  36 2.71  34 2.71
                            30 2.71 121 2.71 127 2.71 123 2.72
  36  0.333  0.417  0.214-  48 2.59  47 2.59  88 2.60  23 2.65  24 2.65  64 2.65 127 2.71  35 2.71
                            34 2.71  77 2.71  76 2.72  74 2.72
  37  1.000  0.000  0.316- 125 2.59  25 2.59  81 2.59 138 2.71  92 2.71  93 2.71  38 2.71 137 2.71
                           192 2.71
  38  0.083  0.083  0.316-  27 2.59  26 2.59  25 2.59  93 2.71  40 2.71 138 2.71  37 2.71  43 2.71
                            39 2.71
  39  0.167  0.167  0.317-  32 2.59  28 2.59  27 2.59  40 2.71  41 2.71  38 2.71  44 2.71  46 2.71
                            43 2.71
  40  0.250  0.000  0.317-  28 2.59  84 2.59  26 2.59  39 2.71  38 2.71  41 2.71  96 2.71  93 2.71
                            95 2.72
  41  0.333  0.083  0.316-  30 2.59  28 2.59  29 2.59  39 2.71  40 2.71  42 2.71  46 2.71  96 2.71
                           133 2.71
  42  0.417  0.167  0.317-  35 2.59  30 2.59 121 2.59  47 2.70 133 2.71  41 2.71 139 2.71  46 2.71
                           134 2.71
  43  1.000  0.250  0.317-  27 2.59 131 2.59  31 2.59  38 2.71 138 2.71 143 2.71 144 2.71  39 2.71
                            44 2.71
  44  0.083  0.333  0.317-  33 2.59  32 2.59  31 2.59  45 2.69  85 2.71 144 2.71  46 2.71  39 2.71
                            43 2.71
  45  0.166  0.416  0.316-  33 2.57  34 2.59  74 2.59  44 2.69  46 2.70  85 2.70  88 2.72  47 2.73
                            86 2.73
  46  0.250  0.250  0.317-  32 2.59  30 2.59  34 2.59  45 2.70  47 2.70  41 2.71  44 2.71  39 2.71
                            42 2.71
  47  0.334  0.332  0.316-  35 2.57  34 2.59  36 2.59  42 2.70  46 2.70 139 2.70  88 2.72  48 2.73
                            45 2.73
  48  0.418  0.415  0.316- 127 2.56  36 2.59  77 2.59 140 2.69 139 2.69 181 2.70  47 2.73  89 2.74
                            88 2.74
  49  0.000  0.583  0.000-  62 2.65  61 2.65 162 2.65   9 2.71  50 2.71 149 2.71 150 2.71  51 2.71
                           155 2.71
  50  0.167  0.500  0.000-  21 2.65  62 2.65  64 2.65   9 2.71  49 2.71  52 2.71  12 2.71  51 2.71
                            10 2.71
  51  0.083  0.667  0.000-  67 2.65  63 2.65  62 2.65  55 2.71 155 2.71  49 2.71  56 2.71  50 2.71
                            52 2.71
  52  0.250  0.583  0.000-  65 2.65  64 2.65  63 2.65  12 2.71  53 2.71  54 2.71  50 2.71  56 2.71
                            51 2.71
  53  0.417  0.500  0.000-  24 2.65  65 2.65 157 2.65 145 2.71 105 2.71  12 2.71  52 2.71 103 2.71
                            54 2.71
  54  0.333  0.667  0.000-  70 2.65  66 2.65  65 2.65  58 2.71  56 2.71  59 2.71 145 2.71  52 2.71
                            53 2.71
  55  1.000  0.833  0.000-  67 2.65 168 2.65  68 2.65  51 2.71 155 2.71 156 2.71  56 2.71 101 2.71
                            57 2.71
  56  0.167  0.750  0.000-  70 2.65  63 2.65  68 2.65  54 2.71  58 2.71  51 2.71  55 2.71  52 2.71
                            57 2.71
  57  0.083  0.917  0.000-  69 2.65  13 2.65  68 2.65   1 2.71   2 2.71 101 2.71  58 2.71  56 2.71
                            55 2.71
  58  0.250  0.833  0.000-  70 2.65  71 2.65  69 2.65  54 2.71  59 2.71  56 2.71  57 2.71  60 2.71
                             2 2.71
  59  0.417  0.750  0.000-  66 2.65  71 2.65 163 2.65  58 2.71  54 2.71 151 2.71 147 2.71 145 2.71
                            60 2.71
  60  0.333  0.917  0.000-  16 2.65  71 2.65  72 2.65   4 2.71   2 2.71  58 2.71   5 2.71  59 2.71
                           151 2.71
  61  0.000  0.500  0.107- 173 2.64  33 2.64  73 2.65 149 2.65  49 2.65   9 2.65  62 2.71 120 2.71
[...]
   0.121E+02 -.892E+01 0.156E+04   -.121E+02 0.894E+01 -.155E+04   0.569E-02 -.124E-01 -.389E+01   -.122E-02 0.252E-03 0.157E-01
   0.108E+02 0.179E+00 0.156E+04   -.108E+02 -.159E+00 -.155E+04   -.308E-02 -.218E-01 -.399E+01   -.513E-03 -.461E-03 0.162E-01
   0.186E+01 0.125E+02 0.156E+04   -.185E+01 -.125E+02 -.155E+04   -.132E-01 -.186E-02 -.390E+01   0.431E-03 -.158E-02 0.164E-01
   0.366E+01 -.948E+01 0.155E+04   -.365E+01 0.950E+01 -.155E+04   0.497E-02 -.163E-01 -.389E+01   -.140E-03 -.597E-03 0.167E-01
   0.874E+01 -.165E+02 0.156E+04   -.875E+01 0.165E+02 -.156E+04   0.889E-02 0.185E-01 -.388E+01   -.123E-02 0.500E-03 0.157E-01
   0.104E+02 -.173E+02 0.156E+04   -.104E+02 0.173E+02 -.155E+04   0.223E-01 -.212E-02 -.387E+01   -.103E-02 0.166E-03 0.163E-01
   0.690E+01 -.184E+02 0.156E+04   -.690E+01 0.184E+02 -.156E+04   -.493E-02 -.540E-02 -.388E+01   -.105E-02 0.747E-03 0.161E-01
   0.402E+01 -.221E+02 0.156E+04   -.401E+01 0.221E+02 -.155E+04   -.113E-01 -.833E-02 -.385E+01   -.476E-03 0.534E-03 0.165E-01
   -.464E+01 -.167E+02 0.155E+04   0.463E+01 0.167E+02 -.155E+04   0.154E-01 -.230E-01 -.385E+01   0.520E-03 -.289E-03 0.166E-01
   -.164E+01 -.199E+02 0.156E+04   0.164E+01 0.199E+02 -.155E+04   -.744E-02 0.115E-01 -.390E+01   0.327E-03 0.687E-03 0.162E-01
[...]
   0.395E+02 0.111E+03 -.588E+03   -.391E+02 -.112E+03 0.590E+03   -.361E+00 0.543E+00 -.210E+01   -.192E-03 0.222E-03 -.125E-01
   0.156E+03 -.484E+02 -.572E+03   -.156E+03 0.485E+02 0.572E+03   0.273E+00 -.123E+00 0.115E+00   0.417E-03 -.153E-03 -.135E-01
   0.534E+02 0.189E+02 -.603E+03   -.530E+02 -.187E+02 0.603E+03   -.389E+00 -.111E+00 -.243E+00   -.252E-03 0.713E-04 -.131E-01
   -.164E+02 0.117E+03 -.535E+03   0.165E+02 -.116E+03 0.536E+03   -.112E+00 -.377E+00 -.732E+00   -.357E-03 0.329E-03 -.129E-01
   0.767E+02 -.181E+03 -.579E+03   -.768E+02 0.181E+03 0.579E+03   0.102E+00 0.586E-01 -.330E+00   -.233E-04 -.988E-04 -.132E-01
   -.563E+01 0.844E+02 -.507E+03   0.576E+01 -.842E+02 0.507E+03   -.166E+00 -.127E+00 0.110E+00   -.177E-03 0.187E-03 -.137E-01
   -.102E+02 0.151E+02 -.482E+03   0.105E+02 -.150E+02 0.482E+03   -.281E+00 -.127E+00 -.368E+00   -.911E-04 0.223E-03 -.130E-01
   0.460E+02 -.867E+02 -.437E+03   -.460E+02 0.865E+02 0.437E+03   0.327E-02 0.132E+00 0.379E+00   -.523E-04 -.241E-03 -.144E-01
   -.300E+02 0.629E+01 -.532E+03   0.300E+02 -.627E+01 0.532E+03   0.953E-02 0.286E-01 0.425E-01   0.490E-04 -.935E-05 -.135E-01
   -.423E+02 0.785E+02 -.511E+03   0.425E+02 -.785E+02 0.512E+03   -.151E+00 0.582E-01 -.732E+00   0.403E-04 0.348E-03 -.130E-01
   -.181E+02 -.203E+03 -.484E+03   0.179E+02 0.203E+03 0.484E+03   0.118E+00 0.271E+00 0.181E+00   0.744E-04 -.329E-03 -.138E-01
   -.911E+02 0.603E+01 -.559E+03   0.909E+02 -.625E+01 0.559E+03   0.228E+00 0.177E+00 -.581E-01   -.186E-03 0.247E-03 -.134E-01
   -.137E+03 0.135E+03 -.530E+03   0.136E+03 -.135E+03 0.530E+03   0.311E+00 -.291E+00 0.234E-01   -.186E-03 0.305E-03 -.134E-01
   -.131E+03 -.140E+03 -.554E+03   0.131E+03 0.140E+03 0.554E+03   0.488E+00 0.167E+00 -.533E+00   -.176E-03 -.438E-04 -.133E-01
   -.612E-01 -.228E+01 -.250E+01   -.711E-12 -.543E-11 0.944E-11   0.141E+00 0.231E+01 -.433E+01   -.125E-02 0.172E-02 0.649E+01

 POSITION                                       TOTAL-FORCE (eV/Angst)
      0.78291      1.35605      0.00000         0.007496      0.018788      0.710876
      3.13166      0.00000      0.00000        -0.019488     -0.016375      0.723624
      3.13166      2.71210      0.00000        -0.011447      0.022717      0.717482
      5.48040      1.35605      0.00000         0.005690      0.003417      0.722544
      7.82915      0.00000      0.00000        -0.007964     -0.001943      0.714143
      7.82915      2.71210      0.00000         0.008543     -0.018158      0.708627
     21.92161      5.42419      0.00000         0.008641      0.008491      0.731086
      5.48040      4.06814      0.00000         0.001213     -0.002853      0.719333
      5.48040      6.78024      0.00000         0.007886     -0.005623      0.713135
      7.82915      5.42419      0.00000        -0.000309     -0.008996      0.727597
     10.17789      4.06814      0.00000         0.003230      0.011959      0.718241
     10.17789      6.78024      0.00000         0.003567     -0.012064      0.731754
      0.00000      0.00000      2.14396        -0.007606      0.001226     -0.729871
      2.34874      1.35605      2.14396         0.000046     -0.006525     -0.717744
      4.69749      2.71210      2.14396         0.007962     -0.012005     -0.705505
      4.69749      0.00000      2.14396        -0.007869      0.017335     -0.730306
      7.04623      1.35605      2.14396        -0.010656     -0.006766     -0.721891
      9.39498      2.71210      2.14396         0.009986     -0.017102     -0.714459
     21.13869      4.06814      2.14396         0.016656     -0.006195     -0.736078
      4.69749      5.42419      2.14396        -0.006193      0.007908     -0.719267
      7.04623      6.78024      2.14396         0.011617      0.037639     -0.707729
      7.04623      4.06814      2.14396         0.003975     -0.003046     -0.730531
      9.39498      5.42419      2.14396         0.007004      0.021942     -0.708290
     11.74372      6.78024      2.14396        -0.010458      0.023769     -0.721078
      0.78523      1.35808      4.26904        -0.008033     -0.000157      0.006883
      3.13101      0.00004      4.27003         0.014825      0.010399     -0.004382
      3.13208      2.71360      4.27099         0.002445      0.001177      0.012996
      5.48022      1.35524      4.27161         0.004414     -0.002934      0.011923
      7.83002      0.00069      4.26851        -0.010742      0.014948      0.010433
      7.83023      2.71109      4.27124        -0.015952     -0.005393     -0.005336
     21.92090      5.42527      4.27120        -0.001383     -0.004246     -0.008960
      5.48182      4.06691      4.27233        -0.022675      0.002859     -0.003117
      5.48315      6.77721      4.27196         0.002331      0.000201     -0.005015
      7.82849      5.42387      4.26712         0.004140      0.019325     -0.005171
     10.17626      4.06907      4.27288         0.007091     -0.003721     -0.002531
     10.17828      6.77882      4.27747        -0.002595      0.007280      0.001757
     18.79023      0.00426      6.32801         0.011123      0.004607     -0.017863
      2.34978      1.35665      6.32994         0.004023      0.004745      0.006512
      4.69792      2.71241      6.33246        -0.002622     -0.008474     -0.018647
      4.69728      0.00293      6.33267        -0.004278     -0.000069      0.004688
      7.04584      1.35751      6.32962         0.008434     -0.010486      0.011845
      9.39484      2.71153      6.33001         0.005287     -0.006857     -0.003479
     21.13809      4.06761      6.33249        -0.008529     -0.009609      0.002008
      4.69737      5.42427      6.33014        -0.003681     -0.013724     -0.010566
      7.03068      6.77153      6.32871         0.002919      0.007276      0.005137
      7.04630      4.06924      6.33412         0.007845     -0.007570     -0.000609
      9.39478      5.40674      6.32611         0.006928      0.003107      0.003843
     11.76096      6.75997      6.32380         0.007629      0.002663     -0.000055
      5.48040      9.49233      0.00000         0.013728      0.002237      0.717359
      7.82915      8.13629      0.00000        -0.026642     -0.001094      0.722246
      7.82915     10.84838      0.00000        -0.012453      0.009393      0.738926
     10.17789      9.49233      0.00000        -0.001563     -0.001986      0.742056
     12.52663      8.13629      0.00000        -0.004364     -0.013563      0.727727
     12.52663     10.84838      0.00000         0.014320      0.001188      0.719934
     26.61910     13.56048      0.00000         0.000279      0.016502      0.710485
     10.17789     12.20443      0.00000         0.026782      0.004059      0.725937
     10.17789     14.91653      0.00000        -0.009592     -0.021261      0.721836
     12.52663     13.56048      0.00000        -0.009312     -0.020503      0.736943
     14.87538     12.20443      0.00000         0.014126     -0.011152      0.731680
     14.87538     14.91653      0.00000        -0.011690     -0.005703      0.724371
[...]
      7.98336      7.80033      9.90621        -0.018882     -0.001826      0.020867
      9.34122      8.14194      9.29421         0.016600     -0.005611      0.015079
      7.08270      8.99390     10.21552         0.026639     -0.012314     -0.014364
     10.26544      9.08732     10.09240         0.005071      0.060386      0.047385
     11.73184      8.69487      9.85728        -0.047214      0.016349     -0.020401
     10.00107     10.55270      9.72732         0.018493      0.009303     -0.013121
     12.86985      9.24939     10.76574        -0.027887      0.027900      0.059337
     14.02118      9.74332      9.87694        -0.043940     -0.012865     -0.031016
     12.47662     10.28642     11.82649         0.000525      0.001692     -0.011268
     15.31670     10.15544     10.59892        -0.002974      0.027070     -0.028564
     16.53650      9.63842      9.82137         0.052284      0.018526     -0.005105
     15.37934     11.67026     10.83103         0.004034      0.008939      0.000746
     17.90908      9.94126     10.45596         0.021933     -0.021092     -0.021116
     18.85593      8.74561     10.32795         0.016815     -0.014653      0.018012
     18.56648     11.18779      9.86117         0.017121      0.011730      0.014493
    total drift:                                0.078528      0.031464     -0.344273

  FREE ENERGIE OF THE ION-ELECTRON SYSTEM (eV)
  free  energy   TOTEN  =     -1948.57430816 eV

  energy  without entropy=    -1948.44365909  energy(sigma->0) =    -1948.50898362

[...]

  free energy =  -0.192961557883E+04  energy without entropy=  -0.192948493546E+04

[...]

 d Force = 0.7799957E-03[ 0.586E-03, 0.974E-03]  d Energy = 0.7968681E-03-0.169E-04
 d Force =-0.5575731E+00[-0.558E+00,-0.557E+00]  d Ewald  =-0.5575736E+00 0.425E-06

 Steepest descent step on ions:
 trial-energy change:   -0.000797  1 .order   -0.000780   -0.000974   -0.000586
  (g-gl).g = 0.974E-03      g.g   = 0.974E-03  gl.gl    = 0.000E+00
 g(Force)  = 0.974E-03   g(Stress)= 0.000E+00 ortho     = 0.000E+00
 gamma     =   0.00000
 trial     =   1.00000
 opt step  =   2.51186  (harmonic =   2.51186) maximal distance =0.00219526
 next E    = -1948.575531   (d E  =  -0.00122)

[...]

 d Force = 0.4091419E-03[-0.679E-04, 0.886E-03]  d Energy = 0.4128533E-03-0.371E-05
 d Force =-0.8456164E+00[-0.847E+00,-0.844E+00]  d Ewald  =-0.8456173E+00 0.957E-06

[...]

 Conjugate gradient step on ions:
 trial-energy change:   -0.000541  1 .order   -0.000538   -0.000730   -0.000345
  (g-gl).g = 0.682E-03      g.g   = 0.637E-03  gl.gl    = 0.974E-03
 g(Force)  = 0.637E-03   g(Stress)= 0.000E+00 ortho     =-0.449E-04
 gamma     =   0.70031
 trial     =   1.20584
 opt step  =   2.28557  (harmonic =   2.28557) maximal distance =0.00194238
 next E    = -1948.576210   (d E  =  -0.00069)

[...]

 Conjugate gradient step on ions:
 trial-energy change:   -0.000456  1 .order   -0.000447   -0.000556   -0.000339
  (g-gl).g = 0.322E-03      g.g   = 0.385E-03  gl.gl    = 0.637E-03
 g(Force)  = 0.385E-03   g(Stress)= 0.000E+00 ortho     = 0.117E-04
 gamma     =   0.50482
 trial     =   1.42178
 opt step  =   3.63680  (harmonic =   3.63680) maximal distance =0.00300873
 next E    = -1948.576930   (d E  =  -0.00071)

[...]

 d Force =-0.1685382E-03[-0.112E-02, 0.788E-03]  d Energy =-0.1018559E-03-0.667E-04
 d Force =-0.8470663E+01[-0.847E+01,-0.847E+01]  d Ewald  =-0.8470661E+01-0.162E-05

[...]

 d Force = 0.3196550E-03[-0.223E-04, 0.662E-03]  d Energy = 0.2831025E-03 0.366E-04
 d Force = 0.4980850E+01[ 0.498E+01, 0.498E+01]  d Ewald  = 0.4980848E+01 0.171E-05

[...]

 d Force =-0.1443581E-04[-0.708E-03, 0.679E-03]  d Energy = 0.7390906E-04-0.883E-04
 d Force =-0.1252507E+02[-0.125E+02,-0.125E+02]  d Ewald  =-0.1252507E+02 0.356E-05

[...]

 d Force = 0.5829189E-04[-0.460E-03, 0.577E-03]  d Energy = 0.1385511E-03-0.803E-04
 d Force =-0.1171380E+02[-0.117E+02,-0.117E+02]  d Ewald  =-0.1171380E+02-0.641E-06

[...]

 d Force =-0.7674449E-04[-0.335E-03, 0.181E-03]  d Energy =-0.4629989E-04-0.304E-04
 d Force =-0.1074396E+02[-0.107E+02,-0.107E+02]  d Ewald  =-0.1074396E+02 0.144E-06

[...]

 d Force = 0.1087825E-03[ 0.310E-06, 0.217E-03]  d Energy = 0.9653449E-04 0.122E-04
 d Force = 0.6968416E+01[ 0.697E+01, 0.697E+01]  d Ewald  = 0.6968417E+01-0.706E-06

[...]

 Conjugate gradient step on ions:
 trial-energy change:   -0.000733  1 .order   -0.000700   -0.000939   -0.000461
  (g-gl).g = 0.645E-03      g.g   = 0.606E-03  gl.gl    = 0.501E-03
 g(Force)  = 0.606E-03   g(Stress)= 0.000E+00 ortho     =-0.242E-06
 gamma     =   1.28869
 trial     =   1.55051
 opt step  =   3.04527  (harmonic =   3.04527) maximal distance =0.00598379
 next E    = -1948.782491   (d E  =  -0.00092)

[...]

 d Force =-0.2889343E-04[-0.323E-03, 0.265E-03]  d Energy = 0.1544614E-04-0.443E-04
 d Force =-0.7888365E+01[-0.789E+01,-0.789E+01]  d Ewald  =-0.7888364E+01-0.143E-05

[...]

 d Force = 0.8254698E-04[-0.122E-04, 0.177E-03]  d Energy = 0.6714735E-04 0.154E-04
 d Force = 0.4331243E+01[ 0.433E+01, 0.433E+01]  d Ewald  = 0.4331243E+01-0.413E-06

[...]

 eigenvalue-minimisations  : 10887
 total energy-change (2. order) :-0.1156889E-04  (-0.1426309E-04)
 number of electron    1627.9999990 magnetization
 augmentation part      528.8579002 magnetization

[...]

 eigenvalues of (default mixing * dielectric matrix)
  average eigenvalue GAMMA=   0.5984
  2.3726  0.9324  0.2681  0.2681  0.0640  0.1201  0.1634

[...]

--------------------------------------- Iteration    227(   9)  ---------------------------------------

 eigenvalue-minimisations  :  5719
 total energy-change (2. order) : 0.4962276E-05  (-0.9655273E-06)
 number of electron    1627.9999990 magnetization
 augmentation part      528.8579147 magnetization

 DIPCOR: dipole corrections for dipol
 direction  3 min pos   155,
 dipolmoment           0.000000      0.000000     -1.100123 electrons x Angstroem
 Tr[quadrupol]   -100395.562889

 energy correction for charged system         0.000000 eV
 dipol+quadrupol energy correction           -0.018646 eV
 added-field ion interaction        -37.796601 eV  (added to PSCEN)

  free energy =  -0.192970070126E+04  energy without entropy=  -0.192957028939E+04

------------------------ aborting loop because EDIFF is reached ----------------------------------------

  Number of pair interactions contributing to vdW energy: 1243467
  Edisp (eV):  -19.08471

  FORCE on cell =-STRESS in cart. coord.  units (eV):
  Direction    XX          YY          ZZ          XY          YZ          ZX
  Alpha Z  3034.29605  3034.29605  3034.29605
  Ewald  340156.98970334579.46504************   505.19107   517.86410   -10.06194
  Hartree361388.17607356283.82754************   455.61630   426.38595     4.11610
  E(xc)   -7566.80571 -7567.46631 -7583.10042     0.11214     0.15613     0.00660
  Local  ************************729715.86265  -960.53417  -950.96399     8.35834
  n-local  2071.74609  2070.46600  1824.89137    -0.03345     0.73743    -0.58935
  augment  8674.34265  8673.81558  8680.07213     0.00550     0.03619    -0.02231
  Kinetic 19211.79371 19203.26847 19325.22043    -0.22249     5.67371    -1.96350
  Fock        0.00000     0.00000     0.00000     0.00000     0.00000     0.00000
  vdW       -23.55963   -22.42801   -20.01846    -0.11900    -0.20405     0.07360
  Total    -159.84767  -159.84798   -77.31399     0.01592    -0.31453    -0.08246
  in kB     -41.87984   -41.87992   -20.25615     0.00417    -0.08241    -0.02161

  FREE ENERGIE OF THE ION-ELECTRON SYSTEM (eV)
  free  energy   TOTEN  =     -1948.78541176 eV

  energy  without entropy=    -1948.65499988  energy(sigma->0) =    -1948.72020582

 d Force = 0.6848817E-03[ 0.366E-03, 0.100E-02]  d Energy = 0.7132717E-03-0.284E-04
 d Force =-0.5280577E+01[-0.528E+01,-0.528E+01]  d Ewald  =-0.5280577E+01 0.427E-07

 Conjugate gradient step on ions:
 trial-energy change:   -0.000713  1 .order   -0.000685   -0.001004   -0.000366
  (g-gl).g = 0.367E-03      g.g   = 0.422E-03  gl.gl    = 0.596E-03
 g(Force)  = 0.422E-03   g(Stress)= 0.000E+00 ortho     = 0.562E-04
 gamma     =   0.61498
 trial     =   2.19622
 opt step  =   3.45821  (harmonic =   3.45821) maximal distance =0.00375684
 next E    = -1948.785489   (d E  =  -0.00079)

 reached required accuracy - stopping structural energy minimisation