 vasp.5.4.4.18Apr17-6-g9f103f2a35 (build Jun 30 2017 19:19:18) complex

 executed on         MareNostrum4 date 2022.06.21  21:18:09

 INCAR:
 POTCAR:    PAW_PBE Au 04Oct2007
 POTCAR:    PAW_PBE O 08Apr2002
 POTCAR:    PAW_PBE C 08Apr2002
 POTCAR:    PAW_PBE N 08Apr2002
 POTCAR:    PAW_PBE H 15Jun2001
 POTCAR:    PAW_PBE Au 04Oct2007

 POTCAR:    PAW_PBE O 08Apr2002

[...]

 POTCAR:    PAW_PBE N 08Apr2002

 POTCAR:    PAW_PBE H 15Jun2001

 Optimization of the real space projectors (new method)

 maximal supplied QI-value         = 15.12
 optimisation between [QCUT,QGAM] = [ 10.73, 21.62] = [ 32.26,130.87] Ry
 Optimized for a Real-space Cutoff    1.42 Angstroem

   l    n(q)    QCUT    max X(q) W(low)/X(q) W(high)/X(q)  e(spline)
   2      8    10.734    60.898    0.15E-03    0.34E-03    0.26E-06
   2      8    10.734    58.894    0.16E-03    0.35E-03    0.27E-06
   0      9    10.734   109.617    0.92E-04    0.16E-03    0.12E-06
   0      9    10.734    75.026    0.89E-04    0.15E-03    0.11E-06
   1      9    10.734    16.344    0.25E-03    0.88E-04    0.14E-06
   1      9    10.734    10.160    0.20E-03    0.77E-04    0.11E-06
 Optimization of the real space projectors (new method)

[...]

   l    n(q)    QCUT    max X(q) W(low)/X(q) W(high)/X(q)  e(spline)
   0      8    10.807    79.467    0.34E-03    0.68E-03    0.21E-06
   0      8    10.807    66.151    0.34E-03    0.67E-03    0.21E-06
   1      7    10.807    14.030    0.45E-03    0.13E-02    0.11E-05
   1      7    10.807     9.831    0.48E-03    0.13E-02    0.11E-05
 Optimization of the real space projectors (new method)

 maximal supplied QI-value         = 34.20
 optimisation between [QCUT,QGAM] = [ 10.60, 21.55] = [ 31.48,130.03] Ry
 Optimized for a Real-space Cutoff    1.23 Angstroem

   l    n(q)    QCUT    max X(q) W(low)/X(q) W(high)/X(q)  e(spline)
   0      8    10.603    19.460    0.37E-03    0.59E-03    0.23E-06
   0      8    10.603    12.209    0.35E-03    0.56E-03    0.22E-06
   1      7    10.603     4.655    0.70E-04    0.28E-03    0.29E-06
  PAW_PBE Au 04Oct2007                  :
  PAW_PBE O 08Apr2002                   :
  PAW_PBE C 08Apr2002                   :
  PAW_PBE N 08Apr2002                   :
  PAW_PBE H 15Jun2001                   :

 POSCAR: Au  O  C  N  H
  positions in direct lattice
  velocities in cartesian coordinates
 exchange correlation table for  LEXCH =        8
   RHO(1)=    0.500       N(1)  =     2000
   RHO(2)=  100.500       N(2)  =     4000

 ion  position               nearest neighbor table
   1  0.000  0.000  0.000- 102 2.94  57 2.94  13 2.94 101 2.94   2 2.94 156 2.94  56 2.94  68 2.94
                           114 2.94
   2  0.083  0.083  0.000-   3 2.94   7 2.94   4 2.94 102 2.94  14 2.94  15 2.94   1 2.94  57 2.94
                            13 2.94
   3  0.167  0.167  0.000-   2 2.94   4 2.94   7 2.94  15 2.94   5 2.94  19 2.94  10 2.94   8 2.94
                            17 2.94
   4  0.250  0.000  0.000-   3 2.94   2 2.94  15 2.94  71 2.94  57 2.94  60 2.94   5 2.94  59 2.94
                            16 2.94
   5  0.333  0.083  0.000-  10 2.94  17 2.94   3 2.94   6 2.94  18 2.94  16 2.94   4 2.94  97 2.94
                            60 2.94
   6  0.417  0.167  0.000-  98 2.94  97 2.94 103 2.94   5 2.94  18 2.94 110 2.94  10 2.94  11 2.94
                            22 2.94
   7  0.000  0.250  0.000-   2 2.94   3 2.94   8 2.94  19 2.94 102 2.94 107 2.94 108 2.94  14 2.94
                           120 2.94
   8  0.083  0.333  0.000-  49 2.94   7 2.94  20 2.94  19 2.94  10 2.94   9 2.94 108 2.94   3 2.94
                            21 2.94
   9  0.167  0.417  0.000-  50 2.94  61 2.94  52 2.94  49 2.94  23 2.94  21 2.94   8 2.94  11 2.94
                            10 2.94
  10  0.250  0.250  0.000-   5 2.94  22 2.94  17 2.94  21 2.94   3 2.94   6 2.94   8 2.94  11 2.94
                             9 2.94
  11  0.333  0.333  0.000-  52 2.94  12 2.94 103 2.94  24 2.94   9 2.94  10 2.94   6 2.94  23 2.94
                            22 2.94
  12  0.417  0.417  0.000-  52 2.94  53 2.94  11 2.94  64 2.94 145 2.94  24 2.94 104 2.94 103 2.94
                           116 2.94
  13  0.083  0.000  0.120-  81 2.90  25 2.91  26 2.91  14 2.94   1 2.94  57 2.94  68 2.94 114 2.94
                            15 2.94  71 2.94  69 2.94   2 2.94
  14  0.000  0.167  0.120- 131 2.90  27 2.91  25 2.91  13 2.94 114 2.94  15 2.94   2 2.94 102 2.94
                           118 2.94  19 2.94 120 2.94   7 2.94
  15  0.167  0.083  0.120-  26 2.91  27 2.91  28 2.91  19 2.94   3 2.94  14 2.94  17 2.94   2 2.94
                             4 2.94  16 2.94  13 2.94  71 2.94
  16  0.333  0.000  0.120-  84 2.90  29 2.91  28 2.91  17 2.94  18 2.94 164 2.94   5 2.94  60 2.94
                            15 2.94  71 2.94  72 2.94   4 2.94
  17  0.250  0.167  0.120-  28 2.91  32 2.91  30 2.91  18 2.94  16 2.94  22 2.94   5 2.94  15 2.94
                            10 2.94  19 2.94  21 2.94   3 2.94
  18  0.417  0.083  0.120-  29 2.91 121 2.91  30 2.91  17 2.94  22 2.94  16 2.94 110 2.94   6 2.94
                             5 2.94 109 2.94 164 2.94  97 2.94
  19  0.083  0.250  0.120-  27 2.91  31 2.91  32 2.91  15 2.94   7 2.94   3 2.94   8 2.94  17 2.94
                            14 2.94 120 2.94  21 2.94  20 2.94
  20  1.000  0.417  0.120- 173 2.91  31 2.91  33 2.91 162 2.94  49 2.94  61 2.94 160 2.94   8 2.94
                           120 2.94  21 2.94  19 2.94 108 2.94
  21  0.167  0.333  0.120-  33 2.90  32 2.91  34 2.91  61 2.94  22 2.94  23 2.94   9 2.94  10 2.94
                            20 2.94  19 2.94  17 2.94   8 2.94
  22  0.333  0.250  0.120-  34 2.90  30 2.91  35 2.91  18 2.94  21 2.94  17 2.94  10 2.94 110 2.94
                            24 2.94  23 2.94   6 2.94  11 2.94
  23  0.250  0.417  0.120-  36 2.90  74 2.90  34 2.91  61 2.94  63 2.94  21 2.94  64 2.94  52 2.94
                             9 2.94  24 2.94  22 2.94  11 2.94
  24  0.417  0.333  0.120-  36 2.89 127 2.90  35 2.91  64 2.94  11 2.94  12 2.94 103 2.94 115 2.94
                           116 2.94  23 2.94  22 2.94 110 2.94
  25  0.000  0.083  0.238-  13 2.91 114 2.91  14 2.91 126 2.93  26 2.93  81 2.94 131 2.94 125 2.94
                            27 2.94  37 2.94  38 2.94 138 2.95
  26  0.167  0.000  0.238-  15 2.91  13 2.91  71 2.91  82 2.93  25 2.93  27 2.94  81 2.94  28 2.94
                            84 2.94  38 2.94  40 2.95  93 2.95
  27  0.083  0.167  0.238-  19 2.91  15 2.91  14 2.91 131 2.93  26 2.94  28 2.94  31 2.94  32 2.94
                            25 2.94  38 2.94  39 2.94  43 2.95
  28  0.250  0.083  0.238-  17 2.91  15 2.91  16 2.91  84 2.94  29 2.94  30 2.94  26 2.94  27 2.94
                            32 2.94  39 2.94  41 2.95  40 2.95
  29  0.417  0.000  0.238-  18 2.91  16 2.91 164 2.91 175 2.94  84 2.94  28 2.94 121 2.94  30 2.94
                           177 2.94 133 2.94  41 2.95  96 2.95
  30  0.333  0.167  0.238-  22 2.91  17 2.91  18 2.91  34 2.93  35 2.94  32 2.94 121 2.94  28 2.94
                            29 2.94  41 2.95  46 2.95  42 2.95
  31  0.000  0.333  0.238-  20 2.91  19 2.91 120 2.91 132 2.93 173 2.94  33 2.94  32 2.94 131 2.94
                            27 2.94 144 2.95  44 2.95  43 2.95
  32  0.167  0.250  0.238-  21 2.91  17 2.91  19 2.91  33 2.94  34 2.94  30 2.94  31 2.94  28 2.94
                            27 2.94  39 2.95  44 2.95  46 2.95
  33  0.084  0.417  0.238-  21 2.90  61 2.91  20 2.91  32 2.94  74 2.94  85 2.94  31 2.94 173 2.94
                            34 2.94  73 2.95  44 2.95  45 2.95
  34  0.250  0.333  0.238-  22 2.90  21 2.91  23 2.91  30 2.93  36 2.93  35 2.93  74 2.94  32 2.94
                            33 2.94  45 2.95  46 2.95  47 2.96
  35  0.417  0.250  0.238-  22 2.91 110 2.91  24 2.91  36 2.93 127 2.93  34 2.93 121 2.93  30 2.94
                           123 2.94  42 2.95  47 2.96 139 2.96
  36  0.334  0.416  0.238-  24 2.89  23 2.90  64 2.91  35 2.93  88 2.93  34 2.93 127 2.93  74 2.94
                            77 2.94  48 2.95  76 2.95  47 2.97
  37  1.000  0.000  0.358-  92 2.93 138 2.94 137 2.94  38 2.94 192 2.94  93 2.94  25 2.94 125 2.94
                            81 2.95
  38  0.083  0.083  0.358-  43 2.94 138 2.94  93 2.94  37 2.94  39 2.94  40 2.94  26 2.94  25 2.94
                            27 2.94
  39  0.167  0.167  0.358-  43 2.93  40 2.94  46 2.94  44 2.94  41 2.94  38 2.94  28 2.94  27 2.94
                            32 2.95
  40  0.250  0.000  0.358-  95 2.93  39 2.94  41 2.94  93 2.94  96 2.94  38 2.94  28 2.95  84 2.95
                            26 2.95
  41  0.333  0.083  0.358-  46 2.94  40 2.94  42 2.94  96 2.94  39 2.94 133 2.94  30 2.95  28 2.95
                            29 2.95
  42  0.417  0.167  0.359-  47 2.93 133 2.94 134 2.94 139 2.94  41 2.94  46 2.94 121 2.95  35 2.95
                            30 2.95
  43  0.000  0.250  0.359- 143 2.92  39 2.93  38 2.94  44 2.94 144 2.94 138 2.94  27 2.95  31 2.95
                           131 2.95
  44  0.084  0.333  0.359- 144 2.93  45 2.93  46 2.94  43 2.94  39 2.94  85 2.94  32 2.95  33 2.95
                            31 2.95
  45  0.167  0.416  0.359-  46 2.93  88 2.93  44 2.93  47 2.94  85 2.94  34 2.95  86 2.95  33 2.95
                            74 2.96
  46  0.250  0.250  0.359-  45 2.93  47 2.93  44 2.94  41 2.94  39 2.94  42 2.94  30 2.95  32 2.95
                            34 2.95
  47  0.334  0.332  0.360-  88 2.92  42 2.93  46 2.93 139 2.93  45 2.94  48 2.94  35 2.96  34 2.96
                            36 2.97
  48  0.417  0.416  0.358-  88 2.92 139 2.93 140 2.93  89 2.94  47 2.94  36 2.95 127 2.95  77 2.96
                           181 2.98
  49  1.000  0.500  0.000-   8 2.94  20 2.94   9 2.94 108 2.94  50 2.94 149 2.94 150 2.94 162 2.94
                            61 2.94
  50  0.083  0.583  0.000-   9 2.94  63 2.94  61 2.94  62 2.94  51 2.94  52 2.94  49 2.94 150 2.94
                            55 2.94
  51  0.167  0.667  0.000-  56 2.94  53 2.94  58 2.94  65 2.94  50 2.94  55 2.94  52 2.94  63 2.94
                            67 2.94
  52  0.250  0.500  0.000-  12 2.94  11 2.94  53 2.94   9 2.94  23 2.94  64 2.94  50 2.94  51 2.94
                            63 2.94
  53  0.333  0.583  0.000-  12 2.94  52 2.94  51 2.94  64 2.94  65 2.94  54 2.94 145 2.94  58 2.94
                            66 2.94
  54  0.417  0.667  0.000-  59 2.94 158 2.94  66 2.94  70 2.94  53 2.94 146 2.94 151 2.94  58 2.94
                           145 2.94
  55  1.000  0.750  0.000- 156 2.94 155 2.94  56 2.94 168 2.94  67 2.94  62 2.94 150 2.94  51 2.94
                            50 2.94
  56  0.083  0.833  0.000-  58 2.94  51 2.94  57 2.94  55 2.94  67 2.94  69 2.94 156 2.94   1 2.94
                            68 2.94
  57  0.167  0.917  0.000-  58 2.94  56 2.94   1 2.94  69 2.94  13 2.94   4 2.94  59 2.94   2 2.94
                            71 2.94
  58  0.250  0.750  0.000-  56 2.94  57 2.94  51 2.94  69 2.94  59 2.94  65 2.94  54 2.94  53 2.94
                            70 2.94
  59  0.333  0.833  0.000-  54 2.94  70 2.94 151 2.94  58 2.94  72 2.94  71 2.94  60 2.94  57 2.94
                             4 2.94
[...]
   -.235E+02 0.516E+01 -.692E+03   0.234E+02 -.516E+01 0.692E+03   0.628E-02 0.154E-02 0.603E+00   -.347E-03 -.375E-03 -.591E-02
   -.157E+02 -.317E+02 -.700E+03   0.157E+02 0.317E+02 0.699E+03   0.123E-01 -.335E-02 0.597E+00   -.199E-05 -.375E-03 -.594E-02
   -.153E+02 0.138E+02 -.703E+03   0.153E+02 -.138E+02 0.702E+03   0.505E-02 -.494E-02 0.632E+00   -.141E-03 -.497E-03 -.587E-02
   -.171E+01 0.369E+01 -.710E+03   0.171E+01 -.369E+01 0.709E+03   -.259E-02 -.628E-03 0.628E+00   0.255E-03 -.583E-03 -.595E-02
   -.266E+01 -.138E+00 -.711E+03   0.265E+01 0.136E+00 0.711E+03   0.102E-01 0.652E-02 0.619E+00   0.414E-03 -.435E-03 -.602E-02
   0.249E+02 0.480E+02 -.694E+03   -.249E+02 -.479E+02 0.694E+03   -.594E-02 -.289E-01 0.598E+00   0.442E-03 -.649E-03 -.595E-02
   -.890E+01 0.238E+02 -.687E+03   0.890E+01 -.238E+02 0.686E+03   0.574E-02 -.191E-01 0.614E+00   -.230E-03 -.111E-03 -.581E-02
   0.205E+02 0.382E+02 -.692E+03   -.205E+02 -.382E+02 0.691E+03   -.106E-01 -.130E-01 0.619E+00   0.144E-03 -.469E-03 -.584E-02
   0.455E+02 0.311E+02 -.656E+03   -.455E+02 -.311E+02 0.655E+03   -.626E-03 0.279E-01 0.623E+00   -.577E-05 0.998E-04 -.577E-02
   0.514E+02 0.636E+02 -.643E+03   -.514E+02 -.636E+02 0.642E+03   -.191E-01 0.186E-01 0.621E+00   0.363E-03 -.364E-03 -.582E-02
   0.392E+02 0.807E+02 -.647E+03   -.392E+02 -.807E+02 0.646E+03   -.319E-02 -.244E-01 0.566E+00   0.432E-03 -.602E-03 -.591E-02
   0.468E+02 0.575E+02 -.566E+03   -.468E+02 -.576E+02 0.565E+03   -.740E-02 0.454E-01 0.666E+00   0.371E-03 -.230E-03 -.585E-02
   -.168E+02 -.240E+02 -.219E+04   0.168E+02 0.241E+02 0.219E+04   0.282E-02 -.375E-01 0.354E+00   -.267E-03 0.628E-06 -.285E-02
   -.335E+02 -.389E+01 -.221E+04   0.335E+02 0.390E+01 0.221E+04   0.568E-02 -.944E-02 0.378E+00   -.105E-03 -.289E-03 -.245E-02
   0.327E+01 0.354E+02 -.221E+04   -.328E+01 -.354E+02 0.221E+04   0.136E-01 0.100E-01 0.373E+00   0.180E-04 -.512E-03 -.232E-02
   -.221E+02 -.479E+02 -.221E+04   0.221E+02 0.478E+02 0.221E+04   -.322E-02 0.159E-01 0.371E+00   0.178E-03 -.289E-03 -.254E-02
   0.120E+02 0.316E+02 -.222E+04   -.120E+02 -.316E+02 0.222E+04   0.113E-01 0.322E-03 0.370E+00   0.239E-03 -.571E-03 -.260E-02
   0.530E+02 0.116E+03 -.218E+04   -.530E+02 -.116E+03 0.218E+04   -.126E-01 -.295E-01 0.275E+00   0.290E-03 -.696E-03 -.313E-02
   -.530E+02 0.438E+02 -.219E+04   0.530E+02 -.438E+02 0.219E+04   0.812E-03 0.472E-02 0.317E+00   -.224E-03 -.377E-03 -.234E-02
   0.482E+02 0.683E+02 -.217E+04   -.482E+02 -.683E+02 0.217E+04   0.500E-02 -.147E-02 0.293E+00   -.837E-04 -.202E-03 -.243E-02
   0.139E+03 0.123E+03 -.203E+04   -.139E+03 -.123E+03 0.203E+04   0.331E-03 0.472E-01 0.713E-01   -.369E-04 -.115E-03 -.283E-02
   0.653E+02 0.111E+03 -.217E+04   -.653E+02 -.111E+03 0.217E+04   0.528E-02 -.202E-01 0.260E+00   0.125E-03 -.508E-03 -.270E-02
   0.884E+02 0.181E+03 -.205E+04   -.884E+02 -.181E+03 0.205E+04   0.147E-01 0.233E-01 0.727E-02   0.203E-03 -.437E-03 -.327E-02
   0.762E+02 0.148E+03 -.188E+04   -.764E+02 -.148E+03 0.188E+04   0.176E+00 0.227E-01 -.976E-01   0.151E-03 -.349E-03 -.380E-02
   0.163E+02 0.203E+01 0.227E+04   -.163E+02 -.202E+01 -.227E+04   0.559E-03 -.843E-02 -.374E+00   -.526E-03 0.279E-03 -.267E-02
   0.274E+02 -.705E+01 0.227E+04   -.274E+02 0.704E+01 -.227E+04   -.115E-01 0.130E-01 -.471E+00   -.527E-03 0.537E-03 -.218E-02
   0.178E+02 -.227E+02 0.227E+04   -.179E+02 0.227E+02 -.227E+04   0.217E-01 0.487E-02 -.391E+00   -.219E-03 0.819E-03 -.190E-02
   0.230E+02 0.507E+01 0.226E+04   -.230E+02 -.507E+01 -.226E+04   0.165E-01 -.928E-02 -.435E+00   -.138E-03 -.803E-04 -.190E-02
   0.327E+01 -.153E+02 0.226E+04   -.327E+01 0.153E+02 -.226E+04   0.514E-02 -.773E-02 -.438E+00   0.183E-03 0.394E-03 -.151E-02
   -.173E+02 -.304E+02 0.227E+04   0.173E+02 0.304E+02 -.227E+04   -.198E-03 0.331E-02 -.396E+00   0.441E-03 0.654E-03 -.154E-02
   0.209E+02 -.194E+02 0.227E+04   -.209E+02 0.194E+02 -.227E+04   0.229E-02 0.137E-01 -.444E+00   -.560E-03 0.967E-03 -.227E-02
   0.807E+01 -.266E+02 0.227E+04   -.807E+01 0.266E+02 -.227E+04   0.430E-02 0.639E-02 -.435E+00   -.289E-03 0.824E-03 -.231E-02
   -.562E+01 -.257E+02 0.227E+04   0.561E+01 0.257E+02 -.227E+04   0.512E-02 0.436E-02 -.407E+00   -.301E-04 0.461E-03 -.235E-02
   -.161E+01 -.349E+02 0.227E+04   0.161E+01 0.349E+02 -.227E+04   0.655E-02 -.414E-02 -.422E+00   0.812E-04 0.855E-03 -.184E-02
   -.136E+02 -.327E+02 0.227E+04   0.136E+02 0.327E+02 -.227E+04   -.879E-02 -.141E-02 -.401E+00   0.317E-03 0.624E-03 -.183E-02
   -.937E+01 -.152E+02 0.228E+04   0.936E+01 0.152E+02 -.228E+04   0.534E-02 -.165E-01 -.414E+00   0.456E-03 0.238E-03 -.186E-02
[...]
   -.330E+02 0.909E+02 -.147E+03   0.382E+02 -.962E+02 0.145E+03   -.520E+01 0.525E+01 0.108E+01   -.954E-04 -.119E-03 0.247E-03
   -.963E+01 -.118E+03 -.168E+03   0.105E+02 0.126E+03 0.168E+03   -.882E+00 -.747E+01 0.365E+00   0.965E-04 0.146E-03 0.205E-03
   0.532E+02 0.424E+02 -.152E+03   -.547E+02 -.460E+02 0.148E+03   0.144E+01 0.361E+01 0.369E+01   -.128E-03 -.433E-05 0.233E-03
   0.700E+02 -.463E+02 -.161E+03   -.734E+02 0.506E+02 0.160E+03   0.336E+01 -.438E+01 0.836E+00   -.164E-03 0.231E-04 0.305E-03
   0.501E+02 0.228E+02 -.171E+03   -.513E+02 -.248E+02 0.176E+03   0.116E+01 0.207E+01 -.490E+01   -.186E-03 -.546E-05 0.393E-03
   0.596E+02 0.483E+02 -.148E+03   -.657E+02 -.514E+02 0.145E+03   0.611E+01 0.316E+01 0.288E+01   0.357E-04 0.173E-04 0.652E-04
   -.871E+02 -.331E+02 -.170E+03   0.925E+02 0.351E+02 0.170E+03   -.544E+01 -.190E+01 -.280E+00   0.239E-03 0.724E-04 0.275E-03
   0.692E+02 0.470E+02 -.173E+03   -.745E+02 -.489E+02 0.173E+03   0.534E+01 0.187E+01 0.184E+00   -.639E-04 -.106E-03 0.141E-03
   -.260E+02 0.497E+02 -.173E+03   0.256E+02 -.525E+02 0.177E+03   0.459E+00 0.278E+01 -.467E+01   0.111E-03 -.147E-03 0.372E-03
   -.346E+02 0.587E+02 -.154E+03   0.349E+02 -.622E+02 0.151E+03   -.241E+00 0.357E+01 0.396E+01   0.721E-04 -.107E-03 0.236E-03
   -.824E+02 -.861E+01 -.163E+03   0.874E+02 0.111E+02 0.163E+03   -.496E+01 -.253E+01 0.115E-02   0.105E-03 -.114E-03 0.314E-03
   -.455E+02 0.887E+02 -.160E+03   0.509E+02 -.935E+02 0.158E+03   -.542E+01 0.470E+01 0.192E+01   0.488E-04 -.187E-03 0.254E-03
   0.745E+02 0.627E+02 -.159E+03   -.811E+02 -.649E+02 0.157E+03   0.661E+01 0.220E+01 0.252E+01   0.370E-04 -.198E-03 0.196E-03
   -.551E+02 -.704E+02 -.171E+03   0.562E+02 0.763E+02 0.171E+03   -.105E+01 -.593E+01 -.106E+00   0.993E-04 0.198E-03 0.224E-03
   0.365E+02 0.300E+02 0.358E+02   0.374E-11 0.327E-12 -.401E-10   -.365E+02 -.300E+02 -.348E+02   0.686E-03 -.242E-03 -.832E+00

 POSITION                                       TOTAL-FORCE (eV/Angst)
      0.00000      0.00000      0.00000        -0.000400      0.001615     -0.010378
      2.54506      1.46939      0.00000        -0.002237     -0.005913     -0.016482
      5.09012      2.93878      0.00000         0.002538     -0.000142     -0.014269
      5.09012      0.00000      0.00000         0.001222     -0.008299     -0.014831
      7.63518      1.46939      0.00000         0.000292     -0.002833     -0.012799
     10.18024      2.93878      0.00000         0.003511      0.007194     -0.012578
      2.54506      4.40817      0.00000        -0.005346      0.007476     -0.013029
      5.09012      5.87756      0.00000        -0.002500      0.003769     -0.013063
      7.63518      7.34695      0.00000         0.001832      0.000466     -0.013361
      7.63518      4.40817      0.00000         0.002366      0.001348     -0.013378
     10.18024      5.87756      0.00000         0.005708      0.002736     -0.005669
     12.72529      7.34695      0.00000        -0.000563     -0.006356     -0.013903
      1.69671      0.00000      2.39950         0.007411      0.007738      0.010903
      1.69671      2.93878      2.39950         0.006625     -0.005615      0.016905
      4.24176      1.46939      2.39950        -0.002711     -0.000439      0.022362
      6.78682      0.00000      2.39950        -0.000228      0.001343      0.020830
      6.78682      2.93878      2.39950        -0.000999      0.000743      0.023346
      9.33188      1.46939      2.39950         0.000268      0.002846      0.023029
      4.24176      4.40817      2.39950        -0.001217      0.001467      0.026802
     24.60224      7.34695      2.39950        -0.003291     -0.001824      0.018750
      6.78682      5.87756      2.39950        -0.001976     -0.000212      0.019574
      9.33188      4.40817      2.39950        -0.002082     -0.007999      0.009190
      9.33188      7.34695      2.39950        -0.017312      0.000825      0.002399
     11.87694      5.87756      2.39950         0.000616     -0.016776     -0.003269
      0.85014      1.46592      4.76086        -0.001905      0.003736     -0.000493
      3.39398      0.00301      4.76233         0.001855     -0.006931     -0.005271
      3.39447      2.94010      4.76060         0.000136      0.004320     -0.000294
      5.93922      1.47088      4.76088        -0.000044      0.001518     -0.002097
      8.48359      0.00185      4.76020         0.004203      0.003335      0.003279
      8.48333      2.94071      4.76188         0.003070     -0.006734     -0.000182
      3.39527      5.87872      4.76144         0.005372     -0.006807     -0.000108
      5.93995      4.40936      4.76123        -0.000329     -0.003695     -0.001539
      5.94112      7.34488      4.75920         0.006215      0.005088      0.001783
      8.48619      5.87223      4.76085         0.002075      0.003104      0.004521
     11.02682      4.40648      4.76250        -0.000602     -0.003285     -0.002426
     11.02703      7.33584      4.75101        -0.001716     -0.001178      0.002624
     20.36006      0.00279      7.16833         0.001671     -0.001297      0.001870
      2.54488      1.47076      7.16720         0.001544     -0.002709      0.006366
      5.09075      2.93875      7.16794         0.003008     -0.000071      0.001986
      5.09163      0.00275      7.16997         0.000599      0.002879      0.001225
      7.63549      1.47020      7.16905         0.002625     -0.005093     -0.004331
     10.18038      2.93748      7.17296        -0.002518     -0.003693     -0.000322
      2.55252      4.40616      7.17366        -0.001834     -0.000915     -0.006427
      5.09407      5.87670      7.17156         0.002230      0.000335     -0.000438
      7.63997      7.33618      7.17695        -0.005219      0.000186     -0.000866
      7.63523      4.40622      7.17549         0.002260      0.002362      0.000171
     10.17912      5.86267      7.19074         0.003650      0.005590      0.000805
     12.72038      7.33582      7.16644         0.002187      0.005086      0.003530
     25.45059      8.81634      0.00000        -0.001287      0.001968     -0.014351
      7.63518     10.28573      0.00000         0.002793     -0.001562     -0.018984
     10.18024     11.75512      0.00000         0.000108      0.000910     -0.015810
     10.18024      8.81634      0.00000         0.003720     -0.006071     -0.014993
     12.72529     10.28573      0.00000         0.002893      0.001672     -0.020023
     15.27035     11.75512      0.00000         0.000597      0.003649     -0.017389
     27.99565     13.22451      0.00000        -0.000678      0.004378     -0.016310
     10.18024     14.69390      0.00000         0.003974     -0.000663     -0.013888
     12.72529     16.16330      0.00000        -0.002658     -0.003040     -0.007874
     12.72529     13.22451      0.00000         0.002510      0.003298     -0.018643
     15.27035     14.69390      0.00000         0.002108     -0.003377     -0.010543
     17.81541     16.16330      0.00000        -0.006150     -0.001658     -0.011477
[...]
      8.55784      7.40114     10.62189        -0.007396     -0.003791     -0.001998
     10.20204      6.99110     10.73736        -0.004884     -0.005783     -0.006606
     13.01669     12.15688     10.30718         0.002914      0.001459     -0.000529
      7.09691      8.84094      9.81748        -0.008966      0.008355      0.003145
      6.72790     10.47229     10.40784        -0.006443      0.000008      0.003436
      7.15168      9.17514     11.56314        -0.004457      0.006808      0.008224
     13.37676      8.75504      9.83677        -0.007281     -0.004535     -0.001093
     18.73277      8.20543     10.44118         0.003543      0.000540     -0.000427
     14.05315      6.60324     10.21475         0.012177     -0.006249     -0.003316
     18.49436      4.92672     11.52597         0.002339     -0.011039      0.003883
     18.61925      4.74753      9.76371         0.002558     -0.006412     -0.014706
     19.56834      6.00191     10.58432        -0.004584     -0.001714     -0.004644
     16.59152      4.03473     10.13511        -0.008949     -0.021247      0.000514
     14.93749      4.37730     10.05446         0.003686     -0.005081     -0.007185
     16.88017      9.86391     10.32680        -0.003341      0.006942     -0.003972
    total drift:                               -0.021010     -0.026232      0.221562

  FREE ENERGIE OF THE ION-ELECTRON SYSTEM (eV)
  free  energy   TOTEN  =      -847.40959058 eV

  energy  without entropy=     -847.33440425  energy(sigma->0) =     -847.37199741

 real space projection operators:
  max/ min on nodes  :      14560.78      14555.38

[...]

  free energy =  -0.828920618079E+03  energy without entropy=  -0.828845421732E+03

[...]

 eigenvalue-minimisations  :  7380
 total energy-change (2. order) :-0.3436144E-05  (-0.4907941E-06)
 number of electron    2215.9997705 magnetization
 augmentation part      777.1982940 magnetization

[...]

 eigenvalues of (default mixing * dielectric matrix)
  average eigenvalue GAMMA=   1.0704
  1.9273  1.0182  0.2658

[...]

--------------------------------------- Iteration      2(   5)  ---------------------------------------

 eigenvalue-minimisations  :  7261
 total energy-change (2. order) : 0.2335466E-05  (-0.3466735E-06)
 number of electron    2215.9997705 magnetization
 augmentation part      777.1982940 magnetization

 DIPCOR: dipole corrections for dipol
 direction  3 min pos   156,
 dipolmoment           0.000000      0.000000     -0.525778 electrons x Angstroem
 Tr[quadrupol]   -159356.403086

 energy correction for charged system         0.000000 eV
 dipol+quadrupol energy correction           -0.003725 eV
 added-field ion interaction        -14.141850 eV  (added to PSCEN)

  free energy =  -0.828920640861E+03  energy without entropy=  -0.828845448336E+03

------------------------ aborting loop because EDIFF is reached ----------------------------------------

  Number of pair interactions contributing to vdW energy:  977738
  Edisp (eV):  -18.48910

  FORCE on cell =-STRESS in cart. coord.  units (eV):
  Direction    XX          YY          ZZ          XY          YZ          ZX
  Alpha Z  6417.04086  6417.04086  6417.04086
  Ewald  442555.96722440054.89256************ -1234.76308  -304.36367    93.37974
  Hartree492822.06330490488.62977************ -1196.29827  -205.82712    13.62687
  E(xc)   -9875.72949 -9876.08182 -9922.01627     0.17420    -0.39828     0.51304
  Local  ************************990909.06682  2445.34385   507.26471   -90.15074
  n-local  -482.70081  -483.11013  -363.70592    -1.26342     0.12226     0.03289
  augment 12991.53246 12991.63021 13071.60296    -0.89351    -0.10924    -0.10333
  Kinetic 30901.48054 30907.13978 31397.81985   -12.45608     3.35917   -17.86096
  Fock        0.00000     0.00000     0.00000     0.00000     0.00000     0.00000
  vdW       -24.64164   -24.52092   -20.35581     0.07352     0.01124     0.04018
  Total    -124.13899  -124.31769    -3.56415    -0.08279     0.05909    -0.52229
  in kB     -27.70017   -27.74005    -0.79530    -0.01847     0.01319    -0.11654

  FREE ENERGIE OF THE ION-ELECTRON SYSTEM (eV)
  free  energy   TOTEN  =      -847.40974496 eV

  energy  without entropy=     -847.33455243  energy(sigma->0) =     -847.37214870

 d Force = 0.1388446E-03[ 0.794E-04, 0.198E-03]  d Energy = 0.1543803E-03-0.155E-04
 d Force =-0.3631909E+00[-0.363E+00,-0.363E+00]  d Ewald  =-0.3631915E+00 0.650E-06

 Steepest descent step on ions:
 trial-energy change:   -0.000154  1 .order   -0.000139   -0.000198   -0.000079
  (g-gl).g = 0.198E-03      g.g   = 0.198E-03  gl.gl    = 0.000E+00
 g(Force)  = 0.198E-03   g(Stress)= 0.000E+00 ortho     = 0.000E+00
 gamma     =   0.00000
 trial     =   1.00000
 opt step  =   1.66736  (harmonic =   1.66736) maximal distance =0.00064604
 next E    =  -847.409756   (d E  =  -0.00017)

 reached required accuracy - stopping structural energy minimisation