 vasp.5.4.4.18Apr17-6-g9f103f2a35 (build Jun 30 2017 19:19:18) complex

 executed on         MareNostrum4 date 2022.04.19  22:26:08

 INCAR:
 POTCAR:    PAW_PBE Ni 02Aug2007
 POTCAR:    PAW_PBE C 08Apr2002
 POTCAR:    PAW_PBE H 15Jun2001
 POTCAR:    PAW_PBE O 08Apr2002

 POTCAR:    PAW_PBE Ni 02Aug2007

 POTCAR:    PAW_PBE C 08Apr2002

 POTCAR:    PAW_PBE H 15Jun2001

 POTCAR:    PAW_PBE O 08Apr2002

 Optimization of the real space projectors (new method)

 maximal supplied QI-value         = 16.25
 optimisation between [QCUT,QGAM] = [ 10.73, 21.61] = [ 32.22,130.83] Ry
 Optimized for a Real-space Cutoff    1.34 Angstroem

   l    n(q)    QCUT    max X(q) W(low)/X(q) W(high)/X(q)  e(spline)
   2      8    10.726    60.317    0.47E-03    0.39E-03    0.97E-07
   2      8    10.726    55.921    0.48E-03    0.39E-03    0.10E-06
   0      9    10.726    51.690    0.35E-03    0.32E-03    0.97E-07
   0      9    10.726    30.015    0.31E-03    0.29E-03    0.88E-07
   1      8    10.726    18.849    0.34E-03    0.47E-04    0.17E-06
   1      8    10.726    14.624    0.29E-03    0.31E-04    0.15E-06
 Optimization of the real space projectors (new method)

[...]

   l    n(q)    QCUT    max X(q) W(low)/X(q) W(high)/X(q)  e(spline)
   0      8    10.603    19.460    0.37E-03    0.59E-03    0.23E-06
   0      8    10.603    12.209    0.35E-03    0.56E-03    0.22E-06
   1      7    10.603     4.655    0.70E-04    0.28E-03    0.29E-06
 Optimization of the real space projectors (new method)

 maximal supplied QI-value         = 24.76
 optimisation between [QCUT,QGAM] = [ 10.64, 21.54] = [ 31.73,129.89] Ry
 Optimized for a Real-space Cutoff    1.23 Angstroem

   l    n(q)    QCUT    max X(q) W(low)/X(q) W(high)/X(q)  e(spline)
   0      8    10.645    20.381    0.38E-03    0.60E-03    0.15E-06
   0      8    10.645    15.268    0.40E-03    0.65E-03    0.17E-06
   1      7    10.645     5.964    0.30E-03    0.63E-03    0.18E-06
   1      7    10.645     5.382    0.24E-03    0.53E-03    0.16E-06
  PAW_PBE Ni 02Aug2007                  :
  PAW_PBE C 08Apr2002                   :
  PAW_PBE H 15Jun2001                   :
  PAW_PBE O 08Apr2002                   :

 POSCAR: Ni  C  H  O
  positions in cartesian coordinates
 exchange correlation table for  LEXCH =        8
   RHO(1)=    0.500       N(1)  =     2000
   RHO(2)=  100.500       N(2)  =     4000

 ion  position               nearest neighbor table
   1  0.000  0.250  0.190-  90 2.20  30 2.46  53 2.46  54 2.46   2 2.49   4 2.49  28 2.49   6 2.49
                            25 2.49   5 2.49
   2  0.000  0.500  0.190-  31 2.46  54 2.46  55 2.46   3 2.49   1 2.49  25 2.49   7 2.49  26 2.49
                             6 2.49
   3  0.000  0.750  0.190-  32 2.46  55 2.46  56 2.46   4 2.49   2 2.49  26 2.49   8 2.49  27 2.49
                             7 2.49
   4  0.000  1.000  0.190-  29 2.46  56 2.46  53 2.46   3 2.49   1 2.49  27 2.49   5 2.49  28 2.49
                             8 2.49
   5  0.143  0.250  0.190-  86 2.16  85 2.23  34 2.46  29 2.46  30 2.46   8 2.49   6 2.49  10 2.49
                             4 2.49   9 2.49   1 2.49
   6  0.143  0.500  0.190-  89 2.09  88 2.11  35 2.46  30 2.46  31 2.46   7 2.49   5 2.49  11 2.49
                             1 2.49  10 2.49   2 2.49
   7  0.143  0.750  0.190-  36 2.46  31 2.46  32 2.46   8 2.49   6 2.49  12 2.49   2 2.49  11 2.49
                             3 2.49
   8  0.143  1.000  0.190-  33 2.46  32 2.46  29 2.46   7 2.49   5 2.49   9 2.49   3 2.49  12 2.49
                             4 2.49
   9  0.286  0.250  0.190-  38 2.46  33 2.46  34 2.46  12 2.49  10 2.49   8 2.49  14 2.49   5 2.49
                            13 2.49
  10  0.286  0.500  0.190-  87 2.03  92 2.15  39 2.46  34 2.46  35 2.46  11 2.49   9 2.49   5 2.49
                            15 2.49   6 2.49  14 2.49
  11  0.286  0.750  0.190-  40 2.46  35 2.46  36 2.46  12 2.49  10 2.49   6 2.49  16 2.49   7 2.49
                            15 2.49
  12  0.286  1.000  0.190-  37 2.46  36 2.46  33 2.46  11 2.49   9 2.49   7 2.49  13 2.49   8 2.49
                            16 2.49
  13  0.429  0.250  0.190-  42 2.46  37 2.46  38 2.46  16 2.49  14 2.49  18 2.49  12 2.49   9 2.49
                            17 2.49
  14  0.429  0.500  0.190-  93 2.05  43 2.46  38 2.46  39 2.46  13 2.49  15 2.49   9 2.49  19 2.49
                            18 2.49  10 2.49
  15  0.429  0.750  0.190-  44 2.46  39 2.46  40 2.46  16 2.49  14 2.49  20 2.49  10 2.49  11 2.49
                            19 2.49
  16  0.429  1.000  0.190-  41 2.46  40 2.46  37 2.46  15 2.49  13 2.49  17 2.49  11 2.49  20 2.49
                            12 2.49
  17  0.571  0.250  0.190-  46 2.46  41 2.46  42 2.46  20 2.49  18 2.49  22 2.49  16 2.49  21 2.49
                            13 2.49
  18  0.571  0.500  0.190-  47 2.46  42 2.46  43 2.46  19 2.49  17 2.49  23 2.49  13 2.49  22 2.49
                            14 2.49
  19  0.571  0.750  0.190- 109 2.18  48 2.46  43 2.46  44 2.46  18 2.49  20 2.49  24 2.49  14 2.49
                            23 2.49  15 2.49
  20  0.571  1.000  0.190-  45 2.46  44 2.46  41 2.46  19 2.49  17 2.49  21 2.49  15 2.49  24 2.49
                            16 2.49
  21  0.714  0.250  0.190-  50 2.46  45 2.46  46 2.46  24 2.49  22 2.49  20 2.49  26 2.49  17 2.49
                            25 2.49
  22  0.714  0.500  0.190-  51 2.46  46 2.46  47 2.46  23 2.49  21 2.49  17 2.49  27 2.49  18 2.49
                            26 2.49
  23  0.714  0.750  0.190-  52 2.46  47 2.46  48 2.46  24 2.49  22 2.49  18 2.49  28 2.49  19 2.49
                            27 2.49
  24  0.714  1.000  0.190-  49 2.46  48 2.46  45 2.46  23 2.49  21 2.49  19 2.49  25 2.49  20 2.49
                            28 2.49
  25  0.857  0.250  0.190-  54 2.46  49 2.46  50 2.46  28 2.49  26 2.49   2 2.49  24 2.49   1 2.49
                            21 2.49
  26  0.857  0.500  0.190-  55 2.46  50 2.46  51 2.46  27 2.49  25 2.49   3 2.49  21 2.49   2 2.49
                            22 2.49
  27  0.857  0.750  0.190-  56 2.46  51 2.46  52 2.46  28 2.49  26 2.49   4 2.49  22 2.49   3 2.49
                            23 2.49
  28  0.857  1.000  0.190-  53 2.46  52 2.46  49 2.46  27 2.49  25 2.49   1 2.49  23 2.49   4 2.49
                            24 2.49
  29  0.095  0.083  0.095-   4 2.46   5 2.46   8 2.46  60 2.46  57 2.46  61 2.46  32 2.49  30 2.49
                            34 2.49  56 2.49  33 2.49  53 2.49
  30  0.095  0.333  0.095-   1 2.46   6 2.46   5 2.46  57 2.46  58 2.46  62 2.46  31 2.49  29 2.49
                            35 2.49  53 2.49  34 2.49  54 2.49
  31  0.095  0.583  0.095-   2 2.46   7 2.46   6 2.46  58 2.46  59 2.46  63 2.46  32 2.49  30 2.49
                            36 2.49  54 2.49  35 2.49  55 2.49
  32  0.095  0.833  0.095-   3 2.46   8 2.46   7 2.46  59 2.46  60 2.46  64 2.46  31 2.49  29 2.49
                            33 2.49  55 2.49  36 2.49  56 2.49
  33  0.238  0.083  0.095-   8 2.46   9 2.46  12 2.46  64 2.46  61 2.46  65 2.46  36 2.49  34 2.49
                            32 2.49  38 2.49  29 2.49  37 2.49
  34  0.238  0.333  0.095-   5 2.46  10 2.46   9 2.46  61 2.46  62 2.46  66 2.46  35 2.49  33 2.49
                            29 2.49  39 2.49  30 2.49  38 2.49
  35  0.238  0.583  0.095-   6 2.46  11 2.46  10 2.46  62 2.46  63 2.46  67 2.46  36 2.49  34 2.49
                            30 2.49  40 2.49  31 2.49  39 2.49
  36  0.238  0.833  0.095-   7 2.46  12 2.46  11 2.46  63 2.46  64 2.46  68 2.46  35 2.49  33 2.49
                            31 2.49  37 2.49  32 2.49  40 2.49
  37  0.381  0.083  0.095-  12 2.46  13 2.46  16 2.46  68 2.46  65 2.46  69 2.46  40 2.49  38 2.49
                            42 2.49  36 2.49  33 2.49  41 2.49
  38  0.381  0.333  0.095-   9 2.46  14 2.46  13 2.46  65 2.46  66 2.46  70 2.46  39 2.49  37 2.49
                            43 2.49  33 2.49  34 2.49  42 2.49
  39  0.381  0.583  0.095-  10 2.46  15 2.46  14 2.46  66 2.46  67 2.46  71 2.46  40 2.49  38 2.49
                            44 2.49  34 2.49  35 2.49  43 2.49
  40  0.381  0.833  0.095-  11 2.46  16 2.46  15 2.46  67 2.46  68 2.46  72 2.46  39 2.49  37 2.49
                            41 2.49  35 2.49  44 2.49  36 2.49
  41  0.524  0.083  0.095-  16 2.46  17 2.46  20 2.46  72 2.46  69 2.46  73 2.46  44 2.49  42 2.49
                            46 2.49  40 2.49  45 2.49  37 2.49
  42  0.524  0.333  0.095-  13 2.46  18 2.46  17 2.46  69 2.46  70 2.46  74 2.46  43 2.49  41 2.49
                            47 2.49  37 2.49  46 2.49  38 2.49
  43  0.524  0.583  0.095-  14 2.46  19 2.46  18 2.46  70 2.46  71 2.46  75 2.46  44 2.49  42 2.49
                            48 2.49  38 2.49  47 2.49  39 2.49
  44  0.524  0.833  0.095-  15 2.46  20 2.46  19 2.46  71 2.46  72 2.46  76 2.46  43 2.49  41 2.49
                            45 2.49  39 2.49  48 2.49  40 2.49
  45  0.667  0.083  0.095-  20 2.46  21 2.46  24 2.46  76 2.46  73 2.46  77 2.46  48 2.49  46 2.49
                            44 2.49  50 2.49  41 2.49  49 2.49
  46  0.667  0.333  0.095-  17 2.46  22 2.46  21 2.46  73 2.46  74 2.46  78 2.46  47 2.49  45 2.49
                            41 2.49  51 2.49  42 2.49  50 2.49
  47  0.667  0.583  0.095-  18 2.46  23 2.46  22 2.46  74 2.46  75 2.46  79 2.46  48 2.49  46 2.49
                            42 2.49  52 2.49  43 2.49  51 2.49
  48  0.667  0.833  0.095-  19 2.46  24 2.46  23 2.46  75 2.46  76 2.46  80 2.46  47 2.49  45 2.49
                            43 2.49  49 2.49  44 2.49  52 2.49
  49  0.810  0.083  0.095-  24 2.46  25 2.46  28 2.46  80 2.46  77 2.46  81 2.46  52 2.49  50 2.49
                            54 2.49  48 2.49  53 2.49  45 2.49
  50  0.810  0.333  0.095-  21 2.46  26 2.46  25 2.46  77 2.46  78 2.46  82 2.46  51 2.49  49 2.49
                            55 2.49  45 2.49  54 2.49  46 2.49
  51  0.810  0.583  0.095-  22 2.46  27 2.46  26 2.46  78 2.46  79 2.46  83 2.46  52 2.49  50 2.49
                            56 2.49  46 2.49  55 2.49  47 2.49
  52  0.810  0.833  0.095-  23 2.46  28 2.46  27 2.46  79 2.46  80 2.46  84 2.46  51 2.49  49 2.49
                            53 2.49  47 2.49  56 2.49  48 2.49
  53  0.952  0.083  0.095-  28 2.46   1 2.46   4 2.46  84 2.46  81 2.46  57 2.46  56 2.49  54 2.49
                            52 2.49  30 2.49  49 2.49  29 2.49
  54  0.952  0.333  0.095-  25 2.46   2 2.46   1 2.46  81 2.46  82 2.46  58 2.46  55 2.49  53 2.49
                            49 2.49  31 2.49  50 2.49  30 2.49
  55  0.952  0.583  0.095-  26 2.46   3 2.46   2 2.46  82 2.46  83 2.46  59 2.46  56 2.49  54 2.49
                            50 2.49  32 2.49  51 2.49  31 2.49
  56  0.952  0.833  0.095-  27 2.46   4 2.46   3 2.46  83 2.46  84 2.46  60 2.46  55 2.49  53 2.49
                            51 2.49  29 2.49  52 2.49  32 2.49
  57  0.048  0.167  0.000-  30 2.46  29 2.46  53 2.46  58 2.49  60 2.49  62 2.49  84 2.49  81 2.49
                            61 2.49
  58  0.048  0.417  0.000-  31 2.46  30 2.46  54 2.46  57 2.49  59 2.49  63 2.49  81 2.49  62 2.49
                            82 2.49
  59  0.048  0.667  0.000-  32 2.46  31 2.46  55 2.46  58 2.49  60 2.49  64 2.49  82 2.49  63 2.49
[...]
   0.435E+02 0.468E+01 0.184E+03   -.465E+02 -.613E+01 -.182E+03   0.427E-01 0.221E-01 0.406E-01   0.296E+01 0.143E+01 -.193E+01
   0.228E+02 0.247E+02 0.179E+03   -.252E+02 -.264E+02 -.176E+03   0.326E-01 0.918E-02 0.185E-01   0.231E+01 0.159E+01 -.293E+01
   0.230E+02 0.339E+02 0.201E+03   -.243E+02 -.352E+02 -.199E+03   0.415E-01 0.544E-02 0.366E-01   0.122E+01 0.118E+01 -.237E+01
   0.692E+02 0.585E+02 0.280E+03   -.645E+02 -.559E+02 -.277E+03   0.470E-01 -.132E+00 -.528E-01   -.469E+01 -.244E+01 -.222E+01
   0.907E+02 0.161E+02 0.267E+03   -.864E+02 -.142E+02 -.263E+03   -.139E+00 0.112E+00 -.141E+00   -.407E+01 -.204E+01 -.324E+01
   0.650E+02 0.196E+02 0.222E+03   -.622E+02 -.192E+02 -.219E+03   0.327E-01 -.171E-01 0.801E-01   -.277E+01 -.410E+00 -.356E+01
   0.446E+02 0.613E+02 0.236E+03   -.425E+02 -.584E+02 -.233E+03   0.511E-02 0.473E-01 0.660E-01   -.210E+01 -.298E+01 -.273E+01
   0.245E+02 0.213E+02 0.260E+04   -.201E+02 -.186E+02 -.260E+04   0.349E-02 0.361E-01 -.127E+01   -.445E+01 -.269E+01 -.260E+01
   0.332E+02 0.404E+01 0.260E+04   -.283E+02 -.406E+01 -.259E+04   0.183E-01 -.482E-02 -.128E+01   -.490E+01 0.378E-01 -.212E+01
   0.252E+02 0.737E+01 0.258E+04   -.229E+02 -.638E+01 -.257E+04   -.721E-01 -.685E-02 -.125E+01   -.229E+01 -.963E+00 -.121E+01
   0.164E+02 0.247E+02 0.258E+04   -.148E+02 -.207E+02 -.258E+04   0.122E-02 -.156E-01 -.129E+01   -.157E+01 -.402E+01 -.152E+01
[...]
   0.798E+01 -.771E+02 -.316E+03   -.804E+01 0.826E+02 0.317E+03   0.658E-01 -.548E+01 -.146E+01   -.131E-01 -.570E-01 0.139E+00
   0.668E+02 -.439E+02 -.312E+03   -.714E+02 0.467E+02 0.314E+03   0.477E+01 -.273E+01 -.175E+01   -.115E+00 -.101E+00 0.978E-01
   0.511E+02 0.100E+03 -.277E+03   -.517E+02 -.108E+03 0.276E+03   0.685E+00 0.797E+01 0.148E+01   -.783E-01 -.351E-01 -.119E+00
   -.433E+02 -.622E+01 -.295E+03   0.461E+02 0.911E+01 0.299E+03   -.266E+01 -.293E+01 -.396E+01   -.947E-01 -.197E-01 0.929E-01
   0.121E+02 0.722E+02 -.281E+03   -.137E+02 -.773E+02 0.283E+03   0.174E+01 0.514E+01 -.209E+01   -.992E-01 -.154E-01 0.347E-01
   -.484E+02 0.357E+02 -.261E+03   0.519E+02 -.366E+02 0.257E+03   -.334E+01 0.101E+01 0.412E+01   -.169E+00 -.700E-01 0.139E+00
   0.573E+01 -.760E+02 -.314E+03   -.635E+01 0.814E+02 0.315E+03   0.598E+00 -.542E+01 -.138E+01   0.256E-01 -.278E-01 0.974E-01
   -.323E+02 0.622E+02 -.309E+03   0.327E+02 -.676E+02 0.310E+03   -.471E+00 0.537E+01 -.115E+01   0.388E-01 0.492E-01 0.138E+00
   -.343E+01 -.848E+01 -.313E+03   0.199E+01 0.920E+01 0.318E+03   0.145E+01 -.733E+00 -.526E+01   0.362E-01 0.118E-01 0.891E-01
   -.724E+02 0.365E+02 -.289E+03   0.772E+02 -.395E+02 0.289E+03   -.486E+01 0.295E+01 0.281E+00   0.416E-01 0.412E-01 0.902E-01
   -.802E+02 -.606E+02 -.323E+03   0.864E+02 0.646E+02 0.326E+03   -.637E+01 -.401E+01 -.339E+01   0.108E+00 0.205E-01 0.913E-01
   0.341E+03 0.547E+02 -.181E+04   -.371E+03 -.314E+02 0.184E+04   0.301E+02 -.228E+02 -.270E+02   -.524E+00 -.520E+00 -.343E+00
   0.131E+03 0.253E+03 -.174E+04   -.167E+03 -.275E+03 0.175E+04   0.368E+02 0.216E+02 -.729E+01   -.845E+00 -.286E+00 0.222E+00
   -.824E+02 -.213E+03 -.175E+04   0.545E+02 0.227E+03 0.173E+04   0.275E+02 -.138E+02 0.252E+02   0.455E+00 0.294E-02 0.961E+00
   -.632E+02 0.155E+02 0.172E+03   -.277E-12 -.162E-11 0.248E-10   0.671E+02 -.129E+02 -.228E+02   -.384E+01 -.258E+01 -.149E+03

 POSITION                                       TOTAL-FORCE (eV/Angst)
     -1.24362      2.15447      3.99899         0.198050      0.085911      0.545334
     -2.48762      4.30914      3.99899        -0.232410      0.130241     -0.159836
     -3.73162      6.46381      3.99899         0.019425      0.007886     -0.107535
     -4.97562      8.61848      3.99899        -0.093741     -0.310068     -0.184388
      1.24438      2.15447      3.99899         0.356619     -0.700599      0.751841
      0.00038      4.30914      3.99899        -0.436626      0.590675      0.603513
     -1.24362      6.46381      3.99899        -0.167756      0.273274     -0.238440
     -2.48762      8.61848      3.99899         0.211356     -0.240514     -0.276927
      3.73238      2.15447      3.99899         0.203201     -0.452062     -0.363517
      2.48838      4.30914      3.99899         0.331279      0.338711      0.248062
      1.24438      6.46381      3.99899        -0.165771      0.402531     -0.236133
      0.00038      8.61848      3.99899         0.005470     -0.002438      0.005493
      6.22038      2.15447      3.99899         0.054672     -0.077707     -0.108869
      4.97638      4.30914      3.99899        -0.109146     -0.206180      0.570161
      3.73238      6.46381      3.99899        -0.157616      0.275783     -0.253547
      2.48838      8.61848      3.99899        -0.019876      0.004900     -0.050857
      8.70838      2.15447      3.99899        -0.011273     -0.004893     -0.049488
      7.46438      4.30914      3.99899         0.149070     -0.101775     -0.169831
      6.22038      6.46381      3.99899         0.038625      0.045035      0.373252
      4.97638      8.61848      3.99899        -0.056033      0.156331     -0.143716
     11.19638      2.15447      3.99899        -0.022757     -0.033968     -0.062583
      9.95238      4.30914      3.99899        -0.020551      0.004261     -0.059773
      8.70838      6.46381      3.99899         0.094983     -0.004060     -0.093546
      7.46438      8.61848      3.99899         0.042091      0.073522     -0.103096
     13.68438      2.15447      3.99899        -0.091446     -0.044915     -0.107382
     12.44038      4.30914      3.99899         0.023864     -0.001190     -0.102107
     11.19638      6.46381      3.99899        -0.021693      0.026614     -0.048828
      9.95238      8.61848      3.99899        -0.072854     -0.073965     -0.112603
      1.24386      0.71806      2.00182        -0.018889      0.096864     -0.135373
     -0.00014      2.87273      2.00182         0.098714      0.037263     -0.194713
     -1.24414      5.02740      2.00182         0.068229     -0.058699     -0.153932
     -2.48814      7.18207      2.00182         0.018697      0.008319     -0.044744
      3.73186      0.71806      2.00182        -0.034158      0.073094     -0.051985
      2.48786      2.87273      2.00182        -0.089049      0.068941     -0.168001
      1.24386      5.02740      2.00182        -0.017160     -0.141805     -0.232117
     -0.00014      7.18207      2.00182         0.001643     -0.039235     -0.021019
      6.21986      0.71806      2.00182        -0.019439      0.013198     -0.017895
      4.97586      2.87273      2.00182        -0.087390      0.028840     -0.077091
      3.73186      5.02740      2.00182        -0.001915     -0.066257     -0.260180
      2.48786      7.18207      2.00182         0.006940     -0.054947      0.005294
      8.70786      0.71806      2.00182         0.038828      0.008173     -0.029407
      7.46386      2.87273      2.00182         0.010902      0.019451     -0.064116
      6.21986      5.02740      2.00182        -0.023743      0.014811     -0.058824
      4.97586      7.18207      2.00182         0.015509     -0.021990     -0.051240
     11.19586      0.71806      2.00182        -0.050954     -0.025464     -0.021612
      9.95186      2.87273      2.00182        -0.001851     -0.020301     -0.042731
      8.70786      5.02740      2.00182        -0.038673     -0.007992     -0.030050
      7.46386      7.18207      2.00182        -0.100060     -0.062340      0.004785
     13.68386      0.71806      2.00182         0.013611      0.015314     -0.054733
     12.43986      2.87273      2.00182        -0.006553     -0.002385     -0.048628
     11.19586      5.02740      2.00182        -0.029683     -0.024671     -0.015343
      9.95186      7.18207      2.00182         0.001069     -0.014390     -0.090333
     16.17186      0.71806      2.00182         0.031735      0.081853     -0.023239
     14.92786      2.87273      2.00182         0.060702      0.008900     -0.049180
     13.68386      5.02740      2.00182         0.065163     -0.041993     -0.013306
     12.43986      7.18207      2.00182         0.011566      0.062016     -0.037165
     -0.00001      1.43645      0.00000         0.020156     -0.002883      0.079138
     -1.24401      3.59113      0.00000         0.000601      0.015524      0.095710
     -2.48801      5.74580      0.00000        -0.010473      0.017364      0.079735
     -3.73201      7.90047      0.00000         0.001154      0.007195      0.068577
[...]
      2.84618      2.04844      6.29895         0.010129     -0.007275     -0.009595
      0.69747      5.78921      6.22241         0.006621      0.003068     -0.027694
     -1.44380      4.53837      6.32636         0.005677      0.000253     -0.021200
     15.69541      1.09440      6.56475         0.001000      0.047444     -0.040049
      2.28986      0.54921      7.89939        -0.003575     -0.002477     -0.014745
     -3.54009      7.61684      7.52449         0.009086      0.025129     -0.022177
     -2.52466      8.39729      6.26223         0.006480     -0.003879     -0.007295
      3.09832      5.85805      6.22177        -0.003917      0.021427     -0.039702
      4.64548      3.19481      6.25399        -0.003787      0.008623      0.003728
      5.35137      5.19936      7.79766         0.021749      0.006267     -0.015666
      6.58677      4.47767      6.69280        -0.018729      0.000057     -0.020169
      6.58048      6.80547      6.56841        -0.030221     -0.033090     -0.033977
     15.75107      2.05576      6.75832        -0.057246     -0.050590      0.078957
      0.58177      0.63678      6.70049         0.020281     -0.104137      0.030266
      5.82211      6.35833      6.14441         0.035356      0.023445      0.037010
    total drift:                                0.045301      0.003474      0.134074

  FREE ENERGIE OF THE ION-ELECTRON SYSTEM (eV)
  free  energy   TOTEN  =      -582.72582753 eV

  energy  without entropy=     -582.65552579  energy(sigma->0) =     -582.69067666

[...]

  free energy =  -0.575034911395E+03  energy without entropy=  -0.574965866796E+03

[...]

 d Force = 0.7242402E-01[ 0.669E-01, 0.779E-01]  d Energy = 0.2844604E+01-0.277E+01
 d Force = 0.4772256E+01[ 0.469E+01, 0.485E+01]  d Ewald  = 0.4772147E+01 0.110E-03

 Steepest descent step on ions:
 trial-energy change:   -2.844604  1 .order   -0.072424   -0.077916   -0.066932
  (g-gl).g = 0.779E-01      g.g   = 0.779E-01  gl.gl    = 0.000E+00
 g(Force)  = 0.779E-01   g(Stress)= 0.000E+00 ortho     = 0.000E+00
 gamma     =   0.00000
 trial     =   1.00000
 opt step  =   4.00000  (harmonic =   7.09395) maximal distance =0.04352494
 next E    =  -583.002193   (d E  =  -0.27637)

[...]

 d Force = 0.2565542E-01[-0.161E+00, 0.212E+00]  d Energy = 0.2526313E-01 0.392E-03
 d Force = 0.2267534E+02[ 0.200E+02, 0.254E+02]  d Ewald  = 0.2265686E+02 0.185E-01

[...]

 d Force = 0.3494674E-01[ 0.456E-03, 0.694E-01]  d Energy = 0.3469946E-01 0.247E-03
 d Force =-0.9111770E+01[-0.961E+01,-0.862E+01]  d Ewald  =-0.9110382E+01-0.139E-02

[...]

 d Force = 0.4095891E-01[-0.113E-01, 0.932E-01]  d Energy = 0.4027726E-01 0.682E-03
 d Force =-0.6022149E+02[-0.603E+02,-0.601E+02]  d Ewald  =-0.6022209E+02 0.595E-03

 Conjugate gradient step on ions:
 trial-energy change:   -0.040277  1 .order   -0.040959   -0.093218    0.011300
  (g-gl).g = 0.706E-01      g.g   = 0.704E-01  gl.gl    = 0.779E-01
 g(Force)  = 0.704E-01   g(Stress)= 0.000E+00 ortho     =-0.176E-03
 gamma     =   0.90573
 trial     =   1.32723
 opt step  =   1.17857  (harmonic =   1.18374) maximal distance =0.01442689
 next E    =  -585.824802   (d E  =  -0.04091)

[...]

 Conjugate gradient step on ions:
 trial-energy change:   -0.019345  1 .order   -0.019306   -0.026493   -0.012119
  (g-gl).g = 0.246E-01      g.g   = 0.278E-01  gl.gl    = 0.232E-01
 g(Force)  = 0.278E-01   g(Stress)= 0.000E+00 ortho     = 0.325E-02
 gamma     =   1.06025
 trial     =   0.84855
 opt step  =   1.56398  (harmonic =   1.56398) maximal distance =0.01481167
 next E    =  -585.897107   (d E  =  -0.02441)

[...]

 d Force = 0.1543288E-02[-0.466E-03, 0.355E-02]  d Energy = 0.1548024E-02-0.474E-05
 d Force =-0.4062942E+02[-0.406E+02,-0.407E+02]  d Ewald  =-0.4062943E+02 0.889E-05

[...]

 d Force =-0.1047212E-03[-0.612E-03, 0.402E-03]  d Energy =-0.1223429E-03 0.176E-04
 d Force = 0.2477967E+02[ 0.248E+02, 0.248E+02]  d Ewald  = 0.2477967E+02-0.854E-06

[...]

 d Force = 0.1952709E-03[ 0.215E-04, 0.369E-03]  d Energy = 0.3277249E-03-0.132E-03
 d Force =-0.1494872E+02[-0.149E+02,-0.149E+02]  d Ewald  =-0.1494872E+02 0.502E-06

[...]

 d Force = 0.1566069E-04[-0.145E-04, 0.458E-04]  d Energy =-0.5952286E-05 0.216E-04
 d Force = 0.1284075E+02[ 0.128E+02, 0.128E+02]  d Ewald  = 0.1284075E+02-0.142E-06

[...]

 d Force = 0.1312434E-03[-0.248E-04, 0.287E-03]  d Energy = 0.9764335E-04 0.336E-04
 d Force = 0.1861859E+02[ 0.186E+02, 0.186E+02]  d Ewald  = 0.1861859E+02 0.929E-06

[...]

 Conjugate gradient step on ions:
 trial-energy change:   -0.000148  1 .order   -0.000159   -0.000244   -0.000074
  (g-gl).g = 0.201E-03      g.g   = 0.212E-03  gl.gl    = 0.227E-03
 g(Force)  = 0.212E-03   g(Stress)= 0.000E+00 ortho     =-0.131E-04
 gamma     =   0.88817
 trial     =   1.22068
 opt step  =   1.74925  (harmonic =   1.74925) maximal distance =0.00161949
 next E    =  -585.941500   (d E  =  -0.00018)

[...]

 eigenvalue-minimisations  : 12505
 total energy-change (2. order) : 0.3560598E-03  (-0.1191484E-04)
 number of electron     910.0002432 magnetization      57.0440506
 augmentation part      522.0239577 magnetization      53.4604562

[...]

 eigenvalues of (default mixing * dielectric matrix)
  average eigenvalue GAMMA=   0.2547
  0.6224  0.0895  0.0521

[...]

--------------------------------------- Iteration     54(   5)  ---------------------------------------

 eigenvalue-minimisations  :  7876
 total energy-change (2. order) :-0.5542999E-05  (-0.2464921E-05)
 number of electron     910.0002432 magnetization      57.0442591
 augmentation part      522.0246529 magnetization      53.4612309

 DIPCOR: dipole corrections for dipol
 direction  3 min pos   149,
 dipolmoment           0.000000      0.000000     -1.025452 electrons x Angstroem
 Tr[quadrupol]    -30439.967118

 energy correction for charged system         0.000000 eV
 dipol+quadrupol energy correction           -0.030212 eV
 added-field ion interaction        -56.622166 eV  (added to PSCEN)

  free energy =  -0.577811546767E+03  energy without entropy=  -0.577741228831E+03

------------------------ aborting loop because EDIFF is reached ----------------------------------------

  Number of pair interactions contributing to vdW energy:  496028
  Edisp (eV):   -8.13013

  FORCE on cell =-STRESS in cart. coord.  units (eV):
  Direction    XX          YY          ZZ          XY          YZ          ZX
  Alpha Z  1318.59959  1318.59959  1318.59959
  Ewald  383825.56118383857.78621************   229.74904  -532.13577   -60.20653
  Hartree406815.27804406855.70397************   100.54417  -375.27575   -59.69826
  E(xc)   -4885.72801 -4885.48473 -4899.97263     0.45919    -0.46075    -0.08254
  Local  ************************808655.42941  -309.32742   892.51894   120.32906
  n-local  -834.57947  -828.67938  -889.49723    -2.67736    -3.46658     0.10717
  augment 14789.02490 14790.57407 14871.10938    -3.48739     1.35755     0.29531
  Kinetic  7622.77604  7596.04369  7778.05077   -18.85977    16.64173    -0.82823
  Fock        0.00000     0.00000     0.00000     0.00000     0.00000     0.00000
  vdW       -10.39706   -10.35042    -7.32084    -0.00292     0.01317    -0.03084
  Total     -45.51694   -40.89674    -2.82238    -3.60246    -0.80745    -0.11485
  in kB     -23.03187   -20.69402    -1.42814    -1.82287    -0.40858    -0.05812

  FREE ENERGIE OF THE ION-ELECTRON SYSTEM (eV)
  free  energy   TOTEN  =      -585.94167442 eV

  energy  without entropy=     -585.87135648  energy(sigma->0) =     -585.90651545

 d Force = 0.1580973E-03[ 0.123E-03, 0.193E-03]  d Energy = 0.1760514E-03-0.180E-04
 d Force = 0.1824763E+01[ 0.182E+01, 0.182E+01]  d Ewald  = 0.1824763E+01 0.327E-06

 Conjugate gradient step on ions:
 trial-energy change:   -0.000176  1 .order   -0.000158   -0.000193   -0.000123
  (g-gl).g = 0.109E-03      g.g   = 0.144E-03  gl.gl    = 0.212E-03
 g(Force)  = 0.144E-03   g(Stress)= 0.000E+00 ortho     = 0.296E-05
 gamma     =   0.51595
 trial     =   1.32639
 opt step  =   3.67202  (harmonic =   3.67202) maximal distance =0.00233161
 next E    =  -585.941765   (d E  =  -0.00027)

 reached required accuracy - stopping structural energy minimisation