 vasp.5.4.4.18Apr17-6-g9f103f2a35 (build Jun 30 2017 19:19:18) complex

 executed on         MareNostrum4 date 2022.04.19  22:26:07

 INCAR:
 POTCAR:    PAW_PBE Ni 02Aug2007
 POTCAR:    PAW_PBE C 08Apr2002
 POTCAR:    PAW_PBE H 15Jun2001
 POTCAR:    PAW_PBE O 08Apr2002

 POTCAR:    PAW_PBE Ni 02Aug2007

 POTCAR:    PAW_PBE C 08Apr2002

 POTCAR:    PAW_PBE H 15Jun2001

 POTCAR:    PAW_PBE O 08Apr2002

 Optimization of the real space projectors (new method)

 maximal supplied QI-value         = 16.25
 optimisation between [QCUT,QGAM] = [ 10.73, 21.61] = [ 32.22,130.83] Ry
 Optimized for a Real-space Cutoff    1.34 Angstroem

   l    n(q)    QCUT    max X(q) W(low)/X(q) W(high)/X(q)  e(spline)
   2      8    10.726    60.317    0.47E-03    0.39E-03    0.97E-07
   2      8    10.726    55.921    0.48E-03    0.39E-03    0.10E-06
   0      9    10.726    51.690    0.35E-03    0.32E-03    0.97E-07
   0      9    10.726    30.015    0.31E-03    0.29E-03    0.88E-07
   1      8    10.726    18.849    0.34E-03    0.47E-04    0.17E-06
   1      8    10.726    14.624    0.29E-03    0.31E-04    0.15E-06
 Optimization of the real space projectors (new method)

[...]

   l    n(q)    QCUT    max X(q) W(low)/X(q) W(high)/X(q)  e(spline)
   0      8    10.603    19.460    0.37E-03    0.59E-03    0.23E-06
   0      8    10.603    12.209    0.35E-03    0.56E-03    0.22E-06
   1      7    10.603     4.655    0.70E-04    0.28E-03    0.29E-06
 Optimization of the real space projectors (new method)

 maximal supplied QI-value         = 24.76
 optimisation between [QCUT,QGAM] = [ 10.64, 21.54] = [ 31.73,129.89] Ry
 Optimized for a Real-space Cutoff    1.23 Angstroem

   l    n(q)    QCUT    max X(q) W(low)/X(q) W(high)/X(q)  e(spline)
   0      8    10.645    20.381    0.38E-03    0.60E-03    0.15E-06
   0      8    10.645    15.268    0.40E-03    0.65E-03    0.17E-06
   1      7    10.645     5.964    0.30E-03    0.63E-03    0.18E-06
   1      7    10.645     5.382    0.24E-03    0.53E-03    0.16E-06
  PAW_PBE Ni 02Aug2007                  :
  PAW_PBE C 08Apr2002                   :
  PAW_PBE H 15Jun2001                   :
  PAW_PBE O 08Apr2002                   :

 POSCAR: Ni  C  H  O
  positions in cartesian coordinates
 exchange correlation table for  LEXCH =        8
   RHO(1)=    0.500       N(1)  =     2000
   RHO(2)=  100.500       N(2)  =     4000

 ion  position               nearest neighbor table
   1  0.000  0.250  0.190-  30 2.46  53 2.46  54 2.46   4 2.49   2 2.49  28 2.49   6 2.49  25 2.49
                             5 2.49
   2  0.000  0.500  0.190-  31 2.46  54 2.46  55 2.46   3 2.49   1 2.49  25 2.49   7 2.49  26 2.49
                             6 2.49
   3  0.000  0.750  0.190-  32 2.46  55 2.46  56 2.46   4 2.49   2 2.49  26 2.49   8 2.49  27 2.49
                             7 2.49
   4  0.000  1.000  0.190-  29 2.46  56 2.46  53 2.46   3 2.49   1 2.49  27 2.49   5 2.49  28 2.49
                             8 2.49
   5  0.143  0.250  0.190-  90 2.19  34 2.46  29 2.46  30 2.46   6 2.49   8 2.49  10 2.49   4 2.49
                             9 2.49   1 2.49
   6  0.143  0.500  0.190-  35 2.46  30 2.46  31 2.46   7 2.49   5 2.49  11 2.49   1 2.49  10 2.49
                             2 2.49
   7  0.143  0.750  0.190-  36 2.46  31 2.46  32 2.46   8 2.49   6 2.49  12 2.49   2 2.49  11 2.49
                             3 2.49
   8  0.143  1.000  0.190-  33 2.46  32 2.46  29 2.46   7 2.49   5 2.49   9 2.49   3 2.49  12 2.49
                             4 2.49
   9  0.286  0.250  0.190-  86 2.12  85 2.17  38 2.46  33 2.46  34 2.46  12 2.49  10 2.49   8 2.49
                            14 2.49   5 2.49  13 2.49
  10  0.286  0.500  0.190-  89 2.02  88 2.13  39 2.46  34 2.46  35 2.46  11 2.49   9 2.49   5 2.49
                            15 2.49   6 2.49  14 2.49
  11  0.286  0.750  0.190-  40 2.46  35 2.46  36 2.46  12 2.49  10 2.49   6 2.49  16 2.49   7 2.49
                            15 2.49
  12  0.286  1.000  0.190-  37 2.46  36 2.46  33 2.46  11 2.49   9 2.49   7 2.49  13 2.49   8 2.49
                            16 2.49
  13  0.429  0.250  0.190-  42 2.46  37 2.46  38 2.46  16 2.49  14 2.49  18 2.49  12 2.49   9 2.49
                            17 2.49
  14  0.429  0.500  0.190-  87 2.07  43 2.46  38 2.46  39 2.46  13 2.49  15 2.49   9 2.49  19 2.49
                            18 2.49  10 2.49  88 2.52
  15  0.429  0.750  0.190-  44 2.46  39 2.46  40 2.46  16 2.49  14 2.49  20 2.49  10 2.49  11 2.49
                            19 2.49
  16  0.429  1.000  0.190-  41 2.46  40 2.46  37 2.46  15 2.49  13 2.49  17 2.49  11 2.49  20 2.49
                            12 2.49
  17  0.571  0.250  0.190-  95 2.06  46 2.46  41 2.46  42 2.46  18 2.49  20 2.49  22 2.49  16 2.49
                            21 2.49  13 2.49  94 2.51
  18  0.571  0.500  0.190- 124 2.12  47 2.46  42 2.46  43 2.46  17 2.49  19 2.49  23 2.49  13 2.49
                            22 2.49  14 2.49
  19  0.571  0.750  0.190-  48 2.46  43 2.46  44 2.46  20 2.49  18 2.49  24 2.49  14 2.49  23 2.49
                            15 2.49
  20  0.571  1.000  0.190-  45 2.46  44 2.46  41 2.46  19 2.49  17 2.49  21 2.49  15 2.49  24 2.49
                            16 2.49
  21  0.714  0.250  0.190-  97 2.08  99 2.15  50 2.46  45 2.46  46 2.46  24 2.49  22 2.49  20 2.49
                            26 2.49  17 2.49  25 2.49
  22  0.714  0.500  0.190-  96 2.22  94 2.25  51 2.46  46 2.46  47 2.46  23 2.49  21 2.49  17 2.49
                            27 2.49  18 2.49  26 2.49
  23  0.714  0.750  0.190-  52 2.46  47 2.46  48 2.46  24 2.49  22 2.49  18 2.49  28 2.49  19 2.49
                            27 2.49
  24  0.714  1.000  0.190-  49 2.46  48 2.46  45 2.46  23 2.49  21 2.49  19 2.49  25 2.49  20 2.49
                            28 2.49
  25  0.857  0.250  0.190-  54 2.46  49 2.46  50 2.46  28 2.49  26 2.49   2 2.49  24 2.49   1 2.49
                            21 2.49
  26  0.857  0.500  0.190-  98 2.21  55 2.46  50 2.46  51 2.46  25 2.49  27 2.49   3 2.49  21 2.49
                             2 2.49  22 2.49
  27  0.857  0.750  0.190-  56 2.46  51 2.46  52 2.46  28 2.49  26 2.49   4 2.49  22 2.49   3 2.49
                            23 2.49
  28  0.857  1.000  0.190-  53 2.46  52 2.46  49 2.46  27 2.49  25 2.49   1 2.49  23 2.49   4 2.49
                            24 2.49
  29  0.095  0.083  0.095-   4 2.46   5 2.46   8 2.46  60 2.46  57 2.46  61 2.46  32 2.49  30 2.49
                            34 2.49  56 2.49  33 2.49  53 2.49
  30  0.095  0.333  0.095-   1 2.46   6 2.46   5 2.46  57 2.46  58 2.46  62 2.46  31 2.49  29 2.49
                            35 2.49  53 2.49  34 2.49  54 2.49
  31  0.095  0.583  0.095-   2 2.46   7 2.46   6 2.46  58 2.46  59 2.46  63 2.46  32 2.49  30 2.49
                            36 2.49  54 2.49  35 2.49  55 2.49
  32  0.095  0.833  0.095-   3 2.46   8 2.46   7 2.46  59 2.46  60 2.46  64 2.46  31 2.49  29 2.49
                            33 2.49  55 2.49  36 2.49  56 2.49
  33  0.238  0.083  0.095-   8 2.46   9 2.46  12 2.46  64 2.46  61 2.46  65 2.46  36 2.49  34 2.49
                            32 2.49  38 2.49  29 2.49  37 2.49
  34  0.238  0.333  0.095-   5 2.46  10 2.46   9 2.46  61 2.46  62 2.46  66 2.46  35 2.49  33 2.49
                            29 2.49  39 2.49  30 2.49  38 2.49
  35  0.238  0.583  0.095-   6 2.46  11 2.46  10 2.46  62 2.46  63 2.46  67 2.46  36 2.49  34 2.49
                            30 2.49  40 2.49  31 2.49  39 2.49
  36  0.238  0.833  0.095-   7 2.46  12 2.46  11 2.46  63 2.46  64 2.46  68 2.46  35 2.49  33 2.49
                            31 2.49  37 2.49  32 2.49  40 2.49
  37  0.381  0.083  0.095-  12 2.46  13 2.46  16 2.46  68 2.46  65 2.46  69 2.46  40 2.49  38 2.49
                            42 2.49  36 2.49  33 2.49  41 2.49
  38  0.381  0.333  0.095-   9 2.46  14 2.46  13 2.46  65 2.46  66 2.46  70 2.46  39 2.49  37 2.49
                            43 2.49  33 2.49  34 2.49  42 2.49
  39  0.381  0.583  0.095-  10 2.46  15 2.46  14 2.46  66 2.46  67 2.46  71 2.46  40 2.49  38 2.49
                            44 2.49  34 2.49  35 2.49  43 2.49
  40  0.381  0.833  0.095-  11 2.46  16 2.46  15 2.46  67 2.46  68 2.46  72 2.46  39 2.49  37 2.49
                            41 2.49  35 2.49  44 2.49  36 2.49
  41  0.524  0.083  0.095-  16 2.46  17 2.46  20 2.46  72 2.46  69 2.46  73 2.46  44 2.49  42 2.49
                            46 2.49  40 2.49  45 2.49  37 2.49
  42  0.524  0.333  0.095-  13 2.46  18 2.46  17 2.46  69 2.46  70 2.46  74 2.46  43 2.49  41 2.49
                            47 2.49  37 2.49  46 2.49  38 2.49
  43  0.524  0.583  0.095-  14 2.46  19 2.46  18 2.46  70 2.46  71 2.46  75 2.46  44 2.49  42 2.49
                            48 2.49  38 2.49  47 2.49  39 2.49
  44  0.524  0.833  0.095-  15 2.46  20 2.46  19 2.46  71 2.46  72 2.46  76 2.46  43 2.49  41 2.49
                            45 2.49  39 2.49  48 2.49  40 2.49
  45  0.667  0.083  0.095-  20 2.46  21 2.46  24 2.46  76 2.46  73 2.46  77 2.46  48 2.49  46 2.49
                            44 2.49  50 2.49  41 2.49  49 2.49
  46  0.667  0.333  0.095-  17 2.46  22 2.46  21 2.46  73 2.46  74 2.46  78 2.46  47 2.49  45 2.49
                            41 2.49  51 2.49  42 2.49  50 2.49
  47  0.667  0.583  0.095-  18 2.46  23 2.46  22 2.46  74 2.46  75 2.46  79 2.46  48 2.49  46 2.49
                            42 2.49  52 2.49  43 2.49  51 2.49
  48  0.667  0.833  0.095-  19 2.46  24 2.46  23 2.46  75 2.46  76 2.46  80 2.46  47 2.49  45 2.49
                            43 2.49  49 2.49  44 2.49  52 2.49
  49  0.810  0.083  0.095-  24 2.46  25 2.46  28 2.46  80 2.46  77 2.46  81 2.46  52 2.49  50 2.49
                            54 2.49  48 2.49  53 2.49  45 2.49
  50  0.810  0.333  0.095-  21 2.46  26 2.46  25 2.46  77 2.46  78 2.46  82 2.46  51 2.49  49 2.49
                            55 2.49  45 2.49  54 2.49  46 2.49
  51  0.810  0.583  0.095-  22 2.46  27 2.46  26 2.46  78 2.46  79 2.46  83 2.46  52 2.49  50 2.49
                            56 2.49  46 2.49  55 2.49  47 2.49
  52  0.810  0.833  0.095-  23 2.46  28 2.46  27 2.46  79 2.46  80 2.46  84 2.46  51 2.49  49 2.49
                            53 2.49  47 2.49  56 2.49  48 2.49
  53  0.952  0.083  0.095-  28 2.46   1 2.46   4 2.46  84 2.46  81 2.46  57 2.46  56 2.49  54 2.49
                            52 2.49  30 2.49  49 2.49  29 2.49
  54  0.952  0.333  0.095-  25 2.46   2 2.46   1 2.46  81 2.46  82 2.46  58 2.46  55 2.49  53 2.49
                            49 2.49  31 2.49  50 2.49  30 2.49
  55  0.952  0.583  0.095-  26 2.46   3 2.46   2 2.46  82 2.46  83 2.46  59 2.46  56 2.49  54 2.49
                            50 2.49  32 2.49  51 2.49  31 2.49
  56  0.952  0.833  0.095-  27 2.46   4 2.46   3 2.46  83 2.46  84 2.46  60 2.46  55 2.49  53 2.49
                            51 2.49  29 2.49  52 2.49  32 2.49
  57  0.048  0.167  0.000-  30 2.46  29 2.46  53 2.46  58 2.49  60 2.49  62 2.49  84 2.49  81 2.49
                            61 2.49
  58  0.048  0.417  0.000-  31 2.46  30 2.46  54 2.46  57 2.49  59 2.49  63 2.49  81 2.49  62 2.49
                            82 2.49
[...]
   -.715E+02 0.476E+01 0.404E+03   0.717E+02 0.710E+00 -.405E+03   0.160E+00 -.139E-01 -.432E+00   -.527E+00 -.542E+01 0.150E+01
   -.548E+02 -.390E+02 0.431E+03   0.577E+02 0.393E+02 -.432E+03   0.513E-01 0.172E+00 -.372E+00   -.297E+01 -.486E+00 0.146E+01
   -.207E+02 -.580E+02 0.384E+03   0.255E+02 0.551E+02 -.386E+03   -.343E-01 -.106E-01 0.390E-01   -.476E+01 0.286E+01 0.117E+01
   0.186E+02 -.861E+01 0.347E+03   -.150E+02 0.102E+02 -.348E+03   -.915E-02 0.347E-01 0.147E+00   -.358E+01 -.165E+01 0.125E+01
   -.803E+01 0.293E+01 0.335E+03   0.112E+02 0.303E+01 -.336E+03   0.426E-01 0.225E-01 0.125E+00   -.330E+01 -.595E+01 0.161E+01
   -.363E+02 -.191E+01 0.354E+03   0.377E+02 0.312E+01 -.355E+03   0.160E+00 0.122E+00 -.831E-01   -.162E+01 -.138E+01 0.975E+00
   -.980E+01 -.129E+02 0.365E+03   0.119E+02 0.101E+02 -.366E+03   0.582E-02 -.295E-01 0.905E-01   -.215E+01 0.284E+01 0.864E+00
   0.186E+02 0.787E+01 0.266E+04   -.172E+02 -.430E+01 -.266E+04   -.192E-01 0.300E-02 -.124E+01   -.137E+01 -.353E+01 0.639E+00
   0.150E+02 0.645E+01 0.265E+04   -.125E+02 -.243E+01 -.265E+04   -.721E-02 0.330E-02 -.126E+01   -.257E+01 -.398E+01 -.485E+00
   0.565E+01 0.607E+01 0.265E+04   -.371E+01 -.782E+01 -.265E+04   0.122E+00 0.575E-01 -.135E+01   -.205E+01 0.171E+01 -.434E+00
   0.919E+01 0.764E+01 0.266E+04   -.847E+01 -.964E+01 -.266E+04   0.408E-02 0.180E-01 -.125E+01   -.715E+00 0.194E+01 0.609E+00
[...]
   -.745E+02 -.298E+02 -.307E+03   0.789E+02 0.332E+02 0.309E+03   -.424E+01 -.332E+01 -.201E+01   -.201E+00 -.919E-01 0.345E-01
   -.737E+02 0.221E+02 -.309E+03   0.791E+02 -.238E+02 0.311E+03   -.526E+01 0.181E+01 -.138E+01   -.125E+00 -.138E+00 -.148E+00
   -.728E+01 0.718E+02 -.232E+03   0.661E+01 -.754E+02 0.228E+03   0.706E+00 0.351E+01 0.415E+01   -.111E-01 0.922E-01 -.699E-01
   -.677E+02 0.359E+02 -.275E+03   0.728E+02 -.372E+02 0.278E+03   -.505E+01 0.122E+01 -.221E+01   -.611E-01 0.665E-01 -.133E+00
   0.648E+02 -.321E+02 -.257E+03   -.702E+02 0.380E+02 0.257E+03   0.535E+01 -.586E+01 0.866E-01   0.874E-01 -.757E-02 -.145E+00
   -.422E+02 -.395E+02 -.255E+03   0.452E+02 0.411E+02 0.250E+03   -.284E+01 -.153E+01 0.434E+01   -.189E+00 -.850E-03 0.268E-02
   0.146E+02 -.693E+02 -.282E+03   -.171E+02 0.740E+02 0.284E+03   0.260E+01 -.473E+01 -.210E+01   -.651E-01 -.886E-01 -.114E+00
   -.532E+02 0.232E+00 -.295E+03   0.568E+02 -.231E+01 0.299E+03   -.347E+01 0.217E+01 -.381E+01   -.130E+00 -.321E-01 -.781E-01
   0.342E+03 0.137E+02 -.180E+04   -.368E+03 0.114E+02 0.183E+04   0.256E+02 -.248E+02 -.294E+02   0.646E+00 -.349E+00 0.969E-01
   0.183E+03 0.272E+03 -.171E+04   -.221E+03 -.293E+03 0.171E+04   0.371E+02 0.204E+02 -.180E+01   0.433E+00 0.659E+00 -.159E+00
   0.152E+02 -.122E+03 -.158E+04   -.306E+02 0.141E+03 0.156E+04   0.154E+02 -.188E+02 0.231E+02   -.636E-02 0.877E-01 0.109E+00
   0.179E+03 -.180E+03 -.162E+04   -.219E+03 0.162E+03 0.163E+04   0.387E+02 0.184E+02 -.519E+01   0.396E+00 -.385E+00 -.628E+00
   0.407E+02 0.198E+03 -.154E+04   -.419E+02 -.232E+03 0.157E+04   0.124E+01 0.337E+02 -.296E+02   0.542E-01 0.388E+00 -.758E+00
   0.464E+02 -.232E+03 -.173E+04   -.868E+02 0.246E+03 0.174E+04   0.410E+02 -.133E+02 -.103E+02   -.616E+00 -.256E+00 -.547E+00
   -.109E+03 -.964E+01 -.623E+02   -.639E-12 -.117E-11 -.241E-10   0.107E+03 0.109E+02 -.622E+02   0.181E+01 -.129E+01 0.124E+03

 POSITION                                       TOTAL-FORCE (eV/Angst)
     -1.24362      2.15447      3.99899        -0.079174     -0.032988     -0.069901
     -2.48762      4.30914      3.99899         0.125025      0.027952     -0.086099
     -3.73162      6.46381      3.99899         0.047340      0.048339     -0.083639
     -4.97562      8.61848      3.99899        -0.079606     -0.063252     -0.088281
      1.24438      2.15447      3.99899         0.086392      0.213122      0.491015
      0.00038      4.30914      3.99899        -0.280106      0.105154     -0.212549
     -1.24362      6.46381      3.99899        -0.012051     -0.065781     -0.091276
     -2.48762      8.61848      3.99899        -0.131596     -0.336503     -0.078257
      3.73238      2.15447      3.99899         0.285799     -0.601938      0.662533
      2.48838      4.30914      3.99899        -0.345384      0.602105      0.337262
      1.24438      6.46381      3.99899        -0.192732      0.255442     -0.246243
      0.00038      8.61848      3.99899         0.235986     -0.295590     -0.323977
      6.22038      2.15447      3.99899         0.036572     -0.268722     -0.296224
      4.97638      4.30914      3.99899         0.155870     -0.008545      0.659994
      3.73238      6.46381      3.99899         0.013862      0.219983     -0.031013
      2.48838      8.61848      3.99899        -0.093917     -0.063072     -0.101101
      8.70838      2.15447      3.99899         0.166603     -0.352683      0.162393
      7.46438      4.30914      3.99899        -0.359173      0.184313      0.022458
      6.22038      6.46381      3.99899         0.039033      0.172521     -0.138503
      4.97638      8.61848      3.99899        -0.050264     -0.359608     -0.241970
     11.19638      2.15447      3.99899         0.457523     -0.547094      0.470921
      9.95238      4.30914      3.99899        -0.229522      0.473331      0.720451
      8.70838      6.46381      3.99899        -0.062943      0.347889     -0.210481
      7.46438      8.61848      3.99899         0.170250     -0.277296     -0.250940
     13.68438      2.15447      3.99899         0.299424     -0.095784     -0.194745
     12.44038      4.30914      3.99899        -0.145964      0.203334      0.548067
     11.19638      6.46381      3.99899         0.147539      0.311802     -0.411117
      9.95238      8.61848      3.99899         0.022250      0.020922     -0.057282
      1.24386      0.71806      2.00182        -0.009331      0.065368     -0.025278
     -0.00014      2.87273      2.00182         0.066559      0.012807     -0.052016
     -1.24414      5.02740      2.00182         0.054189     -0.056813     -0.046170
     -2.48814      7.18207      2.00182        -0.014868      0.022993     -0.021206
      3.73186      0.71806      2.00182        -0.025469      0.102130     -0.138726
      2.48786      2.87273      2.00182         0.061539      0.058887     -0.214306
      1.24386      5.02740      2.00182         0.044213     -0.062582     -0.158588
     -0.00014      7.18207      2.00182         0.023988     -0.036476     -0.043692
      6.21986      0.71806      2.00182         0.035121      0.055519     -0.045307
      4.97586      2.87273      2.00182        -0.062638      0.061041     -0.257025
      3.73186      5.02740      2.00182        -0.036980     -0.094610     -0.226416
      2.48786      7.18207      2.00182         0.020291     -0.047645     -0.064133
      8.70786      0.71806      2.00182        -0.033071      0.080444     -0.085990
      7.46386      2.87273      2.00182        -0.018080      0.007626     -0.064340
      6.21986      5.02740      2.00182         0.007917     -0.104266     -0.003714
      4.97586      7.18207      2.00182        -0.071352      0.010681     -0.019819
     11.19586      0.71806      2.00182        -0.028724      0.128568     -0.166185
      9.95186      2.87273      2.00182         0.097600      0.032083     -0.301908
      8.70786      5.02740      2.00182         0.047057     -0.079983     -0.114772
      7.46386      7.18207      2.00182        -0.015152     -0.036062     -0.061791
     13.68386      0.71806      2.00182        -0.015273      0.049035     -0.018799
     12.43986      2.87273      2.00182        -0.089618      0.032376     -0.175717
     11.19586      5.02740      2.00182        -0.020470     -0.067746     -0.134447
      9.95186      7.18207      2.00182         0.056143     -0.067157     -0.044705
     16.17186      0.71806      2.00182         0.038940      0.014584     -0.020339
     14.92786      2.87273      2.00182        -0.035799      0.029708     -0.018085
     13.68386      5.02740      2.00182        -0.109367     -0.052211      0.027360
     12.43986      7.18207      2.00182        -0.006550     -0.059851     -0.073597
     -0.00001      1.43645      0.00000         0.017365      0.039979      0.109148
     -1.24401      3.59113      0.00000        -0.017480      0.041394      0.040558
     -2.48801      5.74580      0.00000         0.009509      0.015530      0.096042
     -3.73201      7.90047      0.00000         0.006165     -0.052094      0.066803
[...]
     10.96898      0.71402      6.28584        -0.003436     -0.015422     -0.004735
     12.39190      4.74416      6.43394        -0.006452      0.011107      0.021512
     12.84992      2.33837      6.23669        -0.005452     -0.010316      0.006541
      6.82834      1.80946      6.96283        -0.004570     -0.011477     -0.001435
      7.97384      2.28167      8.23345         0.010881      0.011096      0.003040
      5.36415      3.03465      8.78318        -0.019500      0.045396      0.001264
     11.49631      6.93949      6.20646         0.007638      0.013807      0.004074
     10.42075      7.53669      7.51830         0.001374     -0.013978     -0.011073
     11.59985      6.20907      7.86262        -0.026372      0.008871     -0.002963
      0.78617      2.27512      6.77091        -0.060591      0.000656      0.018695
      2.88343      0.61795      6.52008        -0.000834     -0.088556      0.059218
      7.83132      4.10001      6.07893        -0.015305      0.046655     -0.007001
      4.94143      4.71691      8.23289        -0.044819      0.016508      0.020283
      6.01214      2.29311      8.82521         0.016307     -0.046532      0.046180
      9.86860      5.73127      6.78098        -0.020670      0.036254      0.050922
    total drift:                                0.024471      0.014877     -0.412904

  FREE ENERGIE OF THE ION-ELECTRON SYSTEM (eV)
  free  energy   TOTEN  =      -695.60567286 eV

  energy  without entropy=     -695.53463846  energy(sigma->0) =     -695.57015566

[...]

  free energy =  -0.686327525978E+03  energy without entropy=  -0.686257110581E+03

[...]

 d Force = 0.9831308E-01[ 0.915E-01, 0.105E+00]  d Energy = 0.2388255E+01-0.229E+01
 d Force = 0.3456787E+02[ 0.345E+02, 0.347E+02]  d Ewald  = 0.3456771E+02 0.167E-03

 Steepest descent step on ions:
 trial-energy change:   -2.388255  1 .order   -0.098313   -0.105160   -0.091466
  (g-gl).g = 0.105E+00      g.g   = 0.105E+00  gl.gl    = 0.000E+00
 g(Force)  = 0.105E+00   g(Stress)= 0.000E+00 ortho     = 0.000E+00
 gamma     =   0.00000
 trial     =   1.00000
 opt step  =   4.00000  (harmonic =   7.67938) maximal distance =0.04170774
 next E    =  -696.009454   (d E  =  -0.40378)

[...]

 d Force = 0.4380186E-01[-0.205E+00, 0.292E+00]  d Energy = 0.4241341E-01 0.139E-02
 d Force = 0.1993045E+03[ 0.196E+03, 0.203E+03]  d Ewald  = 0.1992786E+03 0.260E-01

[...]

 d Force = 0.4282464E-01[ 0.132E-02, 0.843E-01]  d Energy = 0.4289677E-01-0.721E-04
 d Force =-0.8119530E+02[-0.818E+02,-0.806E+02]  d Ewald  =-0.8119366E+02-0.165E-02

[...]

 d Force = 0.3879613E-01[-0.624E-01, 0.140E+00]  d Energy = 0.3912649E-01-0.330E-03
 d Force =-0.4553110E+02[-0.455E+02,-0.455E+02]  d Ewald  =-0.4552643E+02-0.466E-02

 Conjugate gradient step on ions:
 trial-energy change:   -0.039126  1 .order   -0.038796   -0.139943    0.062350
  (g-gl).g = 0.767E-01      g.g   = 0.761E-01  gl.gl    = 0.105E+00
 g(Force)  = 0.761E-01   g(Stress)= 0.000E+00 ortho     =-0.532E-03
 gamma     =   0.72891
 trial     =   1.84787
 opt step  =   1.28217  (harmonic =   1.27832) maximal distance =0.01488461
 next E    =  -698.338316   (d E  =  -0.04866)

[...]

 Conjugate gradient step on ions:
 trial-energy change:   -0.041918  1 .order   -0.041829   -0.053594   -0.030063
  (g-gl).g = 0.290E-01      g.g   = 0.306E-01  gl.gl    = 0.761E-01
 g(Force)  = 0.306E-01   g(Stress)= 0.000E+00 ortho     = 0.650E-03
 gamma     =   0.38071
 trial     =   1.73473
 opt step  =   3.95105  (harmonic =   3.95105) maximal distance =0.02165328
 next E    =  -698.400153   (d E  =  -0.06103)

[...]

 d Force = 0.8538148E-05[-0.754E-05, 0.246E-04]  d Energy =-0.1416625E-04 0.227E-04
 d Force =-0.7252897E+00[-0.725E+00,-0.725E+00]  d Ewald  =-0.7252896E+00-0.953E-07

[...]

 d Force = 0.1401898E-03[ 0.948E-04, 0.186E-03]  d Energy = 0.1242283E-03 0.160E-04
 d Force = 0.2229278E+00[ 0.223E+00, 0.223E+00]  d Ewald  = 0.2229273E+00 0.521E-06

[...]

 d Force = 0.4496315E-04[-0.904E-05, 0.990E-04]  d Energy = 0.2631992E-04 0.186E-04
 d Force = 0.2325509E+00[ 0.232E+00, 0.233E+00]  d Ewald  = 0.2325510E+00-0.104E-06

[...]

 Conjugate gradient step on ions:
 trial-energy change:   -0.000199  1 .order   -0.000193   -0.000235   -0.000151
  (g-gl).g = 0.131E-03      g.g   = 0.274E-03  gl.gl    = 0.287E-03
 g(Force)  = 0.274E-03   g(Stress)= 0.000E+00 ortho     = 0.271E-04
 gamma     =   0.45680
 trial     =   0.81987
 opt step  =   2.30971  (harmonic =   2.30971) maximal distance =0.00263739
 next E    =  -698.523856   (d E  =  -0.00033)

[...]

 d Force = 0.4651644E-04[-0.356E-04, 0.129E-03]  d Energy =-0.8452389E-04 0.131E-03
 d Force =-0.1556303E+01[-0.156E+01,-0.156E+01]  d Ewald  =-0.1556304E+01 0.527E-06

[...]

 d Force = 0.3752369E-04[-0.113E-04, 0.863E-04]  d Energy = 0.1342632E-04 0.241E-04
 d Force =-0.7426967E+00[-0.743E+00,-0.743E+00]  d Ewald  =-0.7426973E+00 0.561E-06

[...]

 eigenvalue-minimisations  :  8196
 total energy-change (2. order) : 0.2613585E-04  (-0.1871185E-05)
 number of electron     964.0002158 magnetization      56.2317177
 augmentation part      524.7796581 magnetization      52.7295606

[...]

 eigenvalues of (default mixing * dielectric matrix)
  average eigenvalue GAMMA=   0.2568
  0.9080  0.1688  0.0863  0.0542  0.0665

[...]

--------------------------------------- Iteration    138(   7)  ---------------------------------------

 eigenvalue-minimisations  :  8028
 total energy-change (2. order) :-0.3237088E-05  (-0.8315962E-06)
 number of electron     964.0002158 magnetization      56.2317177
 augmentation part      524.7796581 magnetization      52.7295606

 DIPCOR: dipole corrections for dipol
 direction  3 min pos   152,
 dipolmoment           0.000000      0.000000     -1.090483 electrons x Angstroem
 Tr[quadrupol]    -33727.496821

 energy correction for charged system         0.000000 eV
 dipol+quadrupol energy correction           -0.034166 eV
 added-field ion interaction        -64.115459 eV  (added to PSCEN)

  free energy =  -0.688972491049E+03  energy without entropy=  -0.688902495612E+03

------------------------ aborting loop because EDIFF is reached ----------------------------------------

  Number of pair interactions contributing to vdW energy:  675066
  Edisp (eV):   -9.55205

  FORCE on cell =-STRESS in cart. coord.  units (eV):
  Direction    XX          YY          ZZ          XY          YZ          ZX
  Alpha Z  1467.69984  1467.69984  1467.69984
  Ewald  384669.48263383391.63427************   169.47225   -49.47102  -290.03823
  Hartree408650.93733407562.14184************   135.52657   -56.10930  -169.45802
  E(xc)   -5106.60550 -5106.79226 -5120.68144     0.02447     0.06365    -0.50384
  Local  ************************807583.06029  -298.00626   115.94703   436.78134
  n-local  -954.08823  -952.32272 -1006.07583    -4.34833    -0.27559    -4.23004
  augment 14809.19346 14809.25108 14887.00367    -2.53907    -0.65330     2.54816
  Kinetic  8521.80240  8526.55477  8696.34802    -4.24425    -9.23487    24.85646
  Fock        0.00000     0.00000     0.00000     0.00000     0.00000     0.00000
  vdW       -11.44226   -11.38177    -8.91229    -0.06675     0.01839    -0.09515
  Total     -45.40329   -39.02344    -3.64398    -4.18137     0.28499    -0.13934
  in kB     -22.97436   -19.74612    -1.84388    -2.11580     0.14420    -0.07051

  FREE ENERGIE OF THE ION-ELECTRON SYSTEM (eV)
  free  energy   TOTEN  =      -698.52454126 eV

  energy  without entropy=     -698.45454582  energy(sigma->0) =     -698.48954354

 d Force = 0.1354508E-03[ 0.941E-04, 0.177E-03]  d Energy = 0.1191945E-03 0.163E-04
 d Force =-0.1304142E+01[-0.130E+01,-0.130E+01]  d Ewald  =-0.1304141E+01-0.279E-06

 Conjugate gradient step on ions:
 trial-energy change:   -0.000119  1 .order   -0.000135   -0.000177   -0.000094
  (g-gl).g = 0.129E-03      g.g   = 0.153E-03  gl.gl    = 0.277E-03
 g(Force)  = 0.153E-03   g(Stress)= 0.000E+00 ortho     =-0.135E-04
 gamma     =   0.46427
 trial     =   1.20877
 opt step  =   2.58254  (harmonic =   2.58254) maximal distance =0.00263207
 next E    =  -698.524611   (d E  =  -0.00019)

 reached required accuracy - stopping structural energy minimisation