 vasp.5.4.4.18Apr17-6-g9f103f2a35 (build Jun 30 2017 19:19:18) complex

 executed on         MareNostrum4 date 2022.04.13  16:55:21

 INCAR:
 POTCAR:    PAW_PBE Ag 02Apr2005

 POTCAR:    PAW_PBE Ag 02Apr2005

 Optimization of the real space projectors (new method)

 maximal supplied QI-value         = 15.12
 optimisation between [QCUT,QGAM] = [ 10.73, 21.62] = [ 32.26,130.87] Ry
 Optimized for a Real-space Cutoff    1.42 Angstroem

   l    n(q)    QCUT    max X(q) W(low)/X(q) W(high)/X(q)  e(spline)
   2      8    10.734    53.897    0.46E-03    0.48E-03    0.17E-06
   2      8    10.734    52.416    0.47E-03    0.50E-03    0.17E-06
   0      9    10.734   122.045    0.16E-03    0.13E-03    0.44E-07
   0      9    10.734    73.629    0.16E-03    0.13E-03    0.43E-07
   1      9    10.734    15.255    0.66E-04    0.32E-03    0.15E-06
   1      9    10.734     9.562    0.55E-04    0.26E-03    0.12E-06
  PAW_PBE Ag 02Apr2005                  :

 POSCAR: Ag
  positions in cartesian coordinates
 exchange correlation table for  LEXCH =        8
   RHO(1)=    0.500       N(1)  =     2000
   RHO(2)=  100.500       N(2)  =     4000

 ion  position               nearest neighbor table
   1  0.000  0.000  0.000-  28 2.89   4 2.89   3 2.89  35 2.89  10 2.89   2 2.89  70 2.89  40 2.89
                            47 2.89
   2  1.000  0.167  0.000-  27 2.89   8 2.89   5 2.89  28 2.89   3 2.89   1 2.89  39 2.89  61 2.89
                            40 2.89
   3  0.167  0.167  0.000-  14 2.89  17 2.89   8 2.89   2 2.89   1 2.89   4 2.89  38 2.89  40 2.89
                            37 2.89
   4  0.167  0.000  0.000-  13 2.89  14 2.89   1 2.89  11 2.89  10 2.89   3 2.89  37 2.89  47 2.89
                            46 2.89
   5  0.000  0.333  0.000-   8 2.89  27 2.89   2 2.89  32 2.89   6 2.89   7 2.89  62 2.89  44 2.89
                            39 2.89
   6  0.000  0.500  0.000-  12 2.89   7 2.89   9 2.89  31 2.89   5 2.89  32 2.89  43 2.89  65 2.89
                            44 2.89
   7  0.167  0.500  0.000-   6 2.89  18 2.89  21 2.89  12 2.89   5 2.89   8 2.89  42 2.89  44 2.89
                            41 2.89
   8  0.167  0.333  0.000-   5 2.89   2 2.89   3 2.89  17 2.89  18 2.89   7 2.89  39 2.89  41 2.89
                            38 2.89
   9  0.000  0.667  0.000-  12 2.89  36 2.89  31 2.89  11 2.89   6 2.89  10 2.89  66 2.89  48 2.89
                            43 2.89
  10  1.000  0.833  0.000-  36 2.89  35 2.89   9 2.89  11 2.89   1 2.89   4 2.89  69 2.89  47 2.89
                            48 2.89
  11  0.167  0.833  0.000-  22 2.89   9 2.89  12 2.89  10 2.89   4 2.89  13 2.89  46 2.89  48 2.89
                            45 2.89
  12  0.167  0.667  0.000-   6 2.89   9 2.89  22 2.89  11 2.89   7 2.89  21 2.89  43 2.89  45 2.89
                            42 2.89
  13  0.333  0.000  0.000-   4 2.89  16 2.89  15 2.89  22 2.89  11 2.89  14 2.89  46 2.89  52 2.89
                            59 2.89
  14  0.333  0.167  0.000-   3 2.89  17 2.89   4 2.89  20 2.89  15 2.89  13 2.89  51 2.89  37 2.89
                            52 2.89
  15  0.500  0.167  0.000-  26 2.89  20 2.89  29 2.89  14 2.89  13 2.89  16 2.89  50 2.89  52 2.89
                            49 2.89
  16  0.500  0.000  0.000-  25 2.89  26 2.89  13 2.89  23 2.89  22 2.89  15 2.89  49 2.89  59 2.89
                            58 2.89
  17  0.333  0.333  0.000-  14 2.89   3 2.89   8 2.89  20 2.89  19 2.89  18 2.89  38 2.89  56 2.89
                            51 2.89
  18  0.333  0.500  0.000-   7 2.89  21 2.89  24 2.89  19 2.89   8 2.89  17 2.89  55 2.89  41 2.89
                            56 2.89
  19  0.500  0.500  0.000-  30 2.89  24 2.89  33 2.89  18 2.89  17 2.89  20 2.89  54 2.89  56 2.89
                            53 2.89
  20  0.500  0.333  0.000-  29 2.89  15 2.89  30 2.89  14 2.89  17 2.89  19 2.89  53 2.89  51 2.89
                            50 2.89
  21  0.333  0.667  0.000-  18 2.89  23 2.89   7 2.89  22 2.89  12 2.89  24 2.89  42 2.89  60 2.89
                            55 2.89
  22  0.333  0.833  0.000-  11 2.89  12 2.89  21 2.89  23 2.89  13 2.89  16 2.89  45 2.89  59 2.89
                            60 2.89
  23  0.500  0.833  0.000-  34 2.89  21 2.89  24 2.89  22 2.89  25 2.89  16 2.89  58 2.89  60 2.89
                            57 2.89
  24  0.500  0.667  0.000-  34 2.89  33 2.89  19 2.89  23 2.89  18 2.89  21 2.89  57 2.89  55 2.89
                            54 2.89
  25  0.667  0.000  0.000-  16 2.89  28 2.89  23 2.89  27 2.89  34 2.89  26 2.89  58 2.89  64 2.89
                            71 2.89
  26  0.667  0.167  0.000-  15 2.89  32 2.89  29 2.89  16 2.89  27 2.89  25 2.89  63 2.89  49 2.89
                            64 2.89
  27  0.833  0.167  0.000-   2 2.89   5 2.89  32 2.89  26 2.89  25 2.89  28 2.89  62 2.89  64 2.89
                            61 2.89
  28  0.833  0.000  0.000-   1 2.89   2 2.89  25 2.89  35 2.89  34 2.89  27 2.89  61 2.89  71 2.89
                            70 2.89
  29  0.667  0.333  0.000-  20 2.89  32 2.89  15 2.89  26 2.89  31 2.89  30 2.89  50 2.89  68 2.89
                            63 2.89
  30  0.667  0.500  0.000-  19 2.89  33 2.89  20 2.89  36 2.89  31 2.89  29 2.89  67 2.89  53 2.89
                            68 2.89
  31  0.833  0.500  0.000-   9 2.89  36 2.89  30 2.89   6 2.89  32 2.89  29 2.89  66 2.89  68 2.89
                            65 2.89
  32  0.833  0.333  0.000-  29 2.89  26 2.89  27 2.89   5 2.89  31 2.89   6 2.89  63 2.89  65 2.89
                            62 2.89
  33  0.667  0.667  0.000-  24 2.89  19 2.89  30 2.89  35 2.89  34 2.89  36 2.89  54 2.89  72 2.89
                            67 2.89
  34  0.667  0.833  0.000-  24 2.89  23 2.89  33 2.89  35 2.89  25 2.89  28 2.89  57 2.89  71 2.89
                            72 2.89
  35  0.833  0.833  0.000-  10 2.89  33 2.89  36 2.89  34 2.89   1 2.89  28 2.89  70 2.89  72 2.89
                            69 2.89
  36  0.833  0.667  0.000-  10 2.89   9 2.89  31 2.89  35 2.89  30 2.89  33 2.89  69 2.89  67 2.89
                            66 2.89
  37  0.222  0.111  0.107-  75 2.88  74 2.88  76 2.88  52 2.89  51 2.89  38 2.89  40 2.89  46 2.89
                            47 2.89  14 2.89   4 2.89   3 2.89
  38  0.222  0.278  0.107-  76 2.88  73 2.88  79 2.88  51 2.89  37 2.89  56 2.89  40 2.89  39 2.89
                            41 2.89   3 2.89  17 2.89   8 2.89
  39  0.056  0.278  0.107-  73 2.88 100 2.88  78 2.88  62 2.89  61 2.89  40 2.89  38 2.89  44 2.89
                            41 2.89   2 2.89   8 2.89   5 2.89
  40  0.056  0.111  0.107-  74 2.88  99 2.88  73 2.88  61 2.89  39 2.89  70 2.89  38 2.89  37 2.89
                            47 2.89   1 2.89   3 2.89   2 2.89
  41  0.222  0.444  0.107-  79 2.88  78 2.88  80 2.88  56 2.89  55 2.89  42 2.89  44 2.89  39 2.89
                            38 2.89  18 2.89   8 2.89   7 2.89
  42  0.222  0.611  0.107-  80 2.88  77 2.88  83 2.88  55 2.89  41 2.89  60 2.89  44 2.89  43 2.89
                            45 2.89   7 2.89  21 2.89  12 2.89
  43  0.056  0.611  0.107-  77 2.88 104 2.88  82 2.88  66 2.89  65 2.89  44 2.89  42 2.89  48 2.89
                            45 2.89   6 2.89  12 2.89   9 2.89
  44  0.056  0.444  0.107-  78 2.88 103 2.88  77 2.88  65 2.89  43 2.89  62 2.89  42 2.89  41 2.89
                            39 2.89   5 2.89   7 2.89   6 2.89
  45  0.222  0.778  0.107-  83 2.88  82 2.88  84 2.88  60 2.89  59 2.89  46 2.89  48 2.89  42 2.89
                            43 2.89  22 2.89  12 2.89  11 2.89
  46  0.222  0.944  0.107-  84 2.88  81 2.88  75 2.88  59 2.89  45 2.89  52 2.89  48 2.89  47 2.89
                            37 2.89  13 2.89  11 2.89   4 2.89
  47  0.056  0.944  0.107-  81 2.88 108 2.88  74 2.88  70 2.89  69 2.89  48 2.89  46 2.89  40 2.89
                            37 2.89  10 2.89   4 2.89   1 2.89
  48  0.056  0.778  0.107-  82 2.88 107 2.88  81 2.88  69 2.89  47 2.89  66 2.89  46 2.89  45 2.89
                            43 2.89  11 2.89   9 2.89  10 2.89
  49  0.556  0.111  0.107-  87 2.88  86 2.88  88 2.88  64 2.89  63 2.89  50 2.89  52 2.89  58 2.89
                            59 2.89  26 2.89  16 2.89  15 2.89
  50  0.556  0.278  0.107-  88 2.88  85 2.88  91 2.88  63 2.89  49 2.89  68 2.89  52 2.89  51 2.89
                            53 2.89  15 2.89  29 2.89  20 2.89
  51  0.389  0.278  0.107-  85 2.88  76 2.88  90 2.88  38 2.89  37 2.89  52 2.89  50 2.89  53 2.89
                            56 2.89  14 2.89  20 2.89  17 2.89
  52  0.389  0.111  0.107-  86 2.88  75 2.88  85 2.88  37 2.89  51 2.89  46 2.89  50 2.89  49 2.89
                            59 2.89  13 2.89  15 2.89  14 2.89
  53  0.556  0.444  0.107-  91 2.88  90 2.88  92 2.88  68 2.89  67 2.89  54 2.89  56 2.89  51 2.89
                            50 2.89  30 2.89  20 2.89  19 2.89
  54  0.556  0.611  0.107-  92 2.88  89 2.88  95 2.88  67 2.89  53 2.89  72 2.89  56 2.89  55 2.89
                            57 2.89  19 2.89  33 2.89  24 2.89
  55  0.389  0.611  0.107-  89 2.88  80 2.88  94 2.88  42 2.89  41 2.89  56 2.89  54 2.89  60 2.89
                            57 2.89  18 2.89  24 2.89  21 2.89
  56  0.389  0.444  0.107-  90 2.88  79 2.88  89 2.88  41 2.89  55 2.89  38 2.89  54 2.89  53 2.89
                            51 2.89  17 2.89  19 2.89  18 2.89
  57  0.556  0.778  0.107-  95 2.88  94 2.88  96 2.88  72 2.89  71 2.89  58 2.89  60 2.89  54 2.89
                            55 2.89  34 2.89  24 2.89  23 2.89
  58  0.556  0.944  0.107-  96 2.88  93 2.88  87 2.88  71 2.89  57 2.89  64 2.89  60 2.89  59 2.89
                            49 2.89  25 2.89  23 2.89  16 2.89
  59  0.389  0.944  0.107-  93 2.88  84 2.88  86 2.88  46 2.89  45 2.89  60 2.89  58 2.89  52 2.89
                            49 2.89  22 2.89  16 2.89  13 2.89
  60  0.389  0.778  0.107-  94 2.88  83 2.88  93 2.88  45 2.89  59 2.89  42 2.89  58 2.89  57 2.89
                            55 2.89  23 2.89  21 2.89  22 2.89
  61  0.889  0.111  0.107-  99 2.88  98 2.88 100 2.88  40 2.89  39 2.89  62 2.89  64 2.89  70 2.89
                            71 2.89   2 2.89  28 2.89  27 2.89
  62  0.889  0.278  0.107- 100 2.88  97 2.88 103 2.88  39 2.89  61 2.89  44 2.89  64 2.89  63 2.89
                            65 2.89  27 2.89   5 2.89  32 2.89
  63  0.722  0.278  0.107-  97 2.88  88 2.88 102 2.88  50 2.89  49 2.89  64 2.89  62 2.89  65 2.89
                            68 2.89  26 2.89  32 2.89  29 2.89
  64  0.722  0.111  0.107-  98 2.88  87 2.88  97 2.88  49 2.89  63 2.89  58 2.89  62 2.89  61 2.89
                            71 2.89  25 2.89  27 2.89  26 2.89
  65  0.889  0.444  0.107- 103 2.88 102 2.88 104 2.88  44 2.89  43 2.89  66 2.89  68 2.89  63 2.89
                            62 2.89   6 2.89  32 2.89  31 2.89
  66  0.889  0.611  0.107- 104 2.88 101 2.88 107 2.88  43 2.89  65 2.89  48 2.89  68 2.89  67 2.89
                            69 2.89  31 2.89   9 2.89  36 2.89
  67  0.722  0.611  0.107- 101 2.88  92 2.88 106 2.88  54 2.89  53 2.89  68 2.89  66 2.89  72 2.89
                            69 2.89  30 2.89  36 2.89  33 2.89
  68  0.722  0.444  0.107- 102 2.88  91 2.88 101 2.88  53 2.89  67 2.89  50 2.89  66 2.89  65 2.89
[...]
   -.267E-02 0.648E-02 0.856E+03   -.157E-02 0.905E-03 -.856E+03   0.685E-05 0.395E-05 -.577E+00   -.513E-07 0.721E-07 0.383E-01
   -.267E-02 0.650E-02 0.856E+03   -.167E-02 0.863E-03 -.856E+03   0.685E-05 0.395E-05 -.577E+00   -.447E-07 0.764E-07 0.383E-01
   -.268E-02 0.649E-02 0.856E+03   -.168E-02 0.972E-03 -.856E+03   0.685E-05 0.395E-05 -.577E+00   -.452E-07 0.686E-07 0.383E-01
   -.269E-02 0.647E-02 0.856E+03   -.158E-02 0.101E-02 -.856E+03   0.685E-05 0.395E-05 -.577E+00   -.517E-07 0.643E-07 0.383E-01
   -.267E-02 0.648E-02 0.856E+03   -.157E-02 0.905E-03 -.856E+03   0.685E-05 0.395E-05 -.577E+00   -.513E-07 0.721E-07 0.383E-01
   -.267E-02 0.650E-02 0.856E+03   -.167E-02 0.863E-03 -.856E+03   0.685E-05 0.395E-05 -.577E+00   -.447E-07 0.764E-07 0.383E-01
   -.268E-02 0.649E-02 0.856E+03   -.168E-02 0.972E-03 -.856E+03   0.685E-05 0.395E-05 -.577E+00   -.452E-07 0.686E-07 0.383E-01
   -.269E-02 0.647E-02 0.856E+03   -.158E-02 0.101E-02 -.856E+03   0.685E-05 0.395E-05 -.577E+00   -.517E-07 0.643E-07 0.383E-01
   -.267E-02 0.648E-02 0.856E+03   -.157E-02 0.905E-03 -.856E+03   0.685E-05 0.395E-05 -.577E+00   -.513E-07 0.721E-07 0.383E-01
   -.267E-02 0.650E-02 0.856E+03   -.167E-02 0.863E-03 -.856E+03   0.685E-05 0.395E-05 -.577E+00   -.447E-07 0.764E-07 0.383E-01
   -.268E-02 0.649E-02 0.856E+03   -.168E-02 0.972E-03 -.856E+03   0.685E-05 0.395E-05 -.577E+00   -.452E-07 0.686E-07 0.383E-01
   -.269E-02 0.647E-02 0.856E+03   -.158E-02 0.101E-02 -.856E+03   0.685E-05 0.395E-05 -.577E+00   -.517E-07 0.643E-07 0.383E-01
   -.267E-02 0.648E-02 0.856E+03   -.157E-02 0.905E-03 -.856E+03   0.685E-05 0.395E-05 -.577E+00   -.513E-07 0.721E-07 0.383E-01
   -.267E-02 0.650E-02 0.856E+03   -.167E-02 0.863E-03 -.856E+03   0.685E-05 0.395E-05 -.577E+00   -.447E-07 0.764E-07 0.383E-01
   -.268E-02 0.649E-02 0.856E+03   -.168E-02 0.972E-03 -.856E+03   0.685E-05 0.395E-05 -.577E+00   -.452E-07 0.686E-07 0.383E-01
   -.269E-02 0.647E-02 0.856E+03   -.158E-02 0.101E-02 -.856E+03   0.685E-05 0.395E-05 -.577E+00   -.517E-07 0.643E-07 0.383E-01
   -.267E-02 0.648E-02 0.856E+03   -.157E-02 0.905E-03 -.856E+03   0.685E-05 0.395E-05 -.577E+00   -.513E-07 0.721E-07 0.383E-01
   -.267E-02 0.650E-02 0.856E+03   -.167E-02 0.863E-03 -.856E+03   0.685E-05 0.395E-05 -.577E+00   -.447E-07 0.764E-07 0.383E-01
   -.268E-02 0.649E-02 0.856E+03   -.168E-02 0.972E-03 -.856E+03   0.685E-05 0.395E-05 -.577E+00   -.452E-07 0.686E-07 0.383E-01
   -.269E-02 0.647E-02 0.856E+03   -.158E-02 0.101E-02 -.856E+03   0.685E-05 0.395E-05 -.577E+00   -.517E-07 0.643E-07 0.383E-01
   -.267E-02 0.648E-02 0.856E+03   -.157E-02 0.905E-03 -.856E+03   0.685E-05 0.395E-05 -.577E+00   -.513E-07 0.721E-07 0.383E-01
[...]
   0.138E-02 -.181E-02 -.255E+04   -.489E-03 0.268E-03 0.255E+04   -.166E-04 -.957E-05 0.134E+01   0.151E-07 -.448E-08 0.149E-01
   0.137E-02 -.182E-02 -.255E+04   -.487E-03 0.281E-03 0.255E+04   -.166E-04 -.957E-05 0.134E+01   0.151E-07 -.939E-08 0.149E-01
   0.137E-02 -.182E-02 -.255E+04   -.476E-03 0.290E-03 0.255E+04   -.166E-04 -.957E-05 0.134E+01   0.108E-07 -.118E-07 0.149E-01
   0.137E-02 -.182E-02 -.255E+04   -.479E-03 0.277E-03 0.255E+04   -.166E-04 -.957E-05 0.134E+01   0.108E-07 -.688E-08 0.149E-01
   0.138E-02 -.181E-02 -.255E+04   -.489E-03 0.268E-03 0.255E+04   -.166E-04 -.957E-05 0.134E+01   0.151E-07 -.447E-08 0.149E-01
   0.137E-02 -.182E-02 -.255E+04   -.487E-03 0.281E-03 0.255E+04   -.166E-04 -.957E-05 0.134E+01   0.151E-07 -.939E-08 0.149E-01
   0.137E-02 -.182E-02 -.255E+04   -.476E-03 0.290E-03 0.255E+04   -.166E-04 -.957E-05 0.134E+01   0.108E-07 -.118E-07 0.149E-01
   0.137E-02 -.182E-02 -.255E+04   -.479E-03 0.277E-03 0.255E+04   -.166E-04 -.957E-05 0.134E+01   0.108E-07 -.688E-08 0.149E-01
   0.138E-02 -.181E-02 -.255E+04   -.489E-03 0.268E-03 0.255E+04   -.166E-04 -.957E-05 0.134E+01   0.151E-07 -.447E-08 0.149E-01
   0.137E-02 -.182E-02 -.255E+04   -.487E-03 0.281E-03 0.255E+04   -.166E-04 -.957E-05 0.134E+01   0.151E-07 -.938E-08 0.149E-01
   0.137E-02 -.182E-02 -.255E+04   -.476E-03 0.290E-03 0.255E+04   -.166E-04 -.957E-05 0.134E+01   0.108E-07 -.118E-07 0.149E-01
   0.137E-02 -.182E-02 -.255E+04   -.479E-03 0.277E-03 0.255E+04   -.166E-04 -.957E-05 0.134E+01   0.108E-07 -.689E-08 0.149E-01
   0.138E-02 -.181E-02 -.255E+04   -.489E-03 0.268E-03 0.255E+04   -.166E-04 -.957E-05 0.134E+01   0.151E-07 -.448E-08 0.149E-01
   0.137E-02 -.182E-02 -.255E+04   -.487E-03 0.281E-03 0.255E+04   -.166E-04 -.957E-05 0.134E+01   0.151E-07 -.939E-08 0.149E-01
   0.137E+00 -.238E+00 -.472E+01   0.136E-11 -.357E-12 -.150E-10   -.858E-03 -.496E-03 0.343E+01   0.138E-05 -.276E-05 0.384E+01

 POSITION                                       TOTAL-FORCE (eV/Angst)
      0.00000      0.00000      0.00000         0.000019      0.000011     -0.136974
     15.90463      2.50433      0.00000         0.000019      0.000011     -0.136974
      1.44588      2.50433      0.00000         0.000019      0.000011     -0.136974
      2.89175      0.00000      0.00000         0.000019      0.000011     -0.136974
     -2.89175      5.00866      0.00000         0.000019      0.000011     -0.136974
     -4.33763      7.51299      0.00000         0.000019      0.000011     -0.136974
     -1.44588      7.51299      0.00000         0.000019      0.000011     -0.136974
     -0.00000      5.00866      0.00000         0.000019      0.000011     -0.136974
     -5.78350     10.01732      0.00000         0.000019      0.000011     -0.136974
     10.12113     12.52165      0.00000         0.000019      0.000011     -0.136974
     -4.33763     12.52165      0.00000         0.000019      0.000011     -0.136974
     -2.89175     10.01732      0.00000         0.000019      0.000011     -0.136974
      5.78350      0.00000      0.00000         0.000019      0.000011     -0.136974
      4.33763      2.50433      0.00000         0.000019      0.000011     -0.136974
      7.22938      2.50433      0.00000         0.000019      0.000011     -0.136974
      8.67525      0.00000      0.00000         0.000019      0.000011     -0.136974
      2.89175      5.00866      0.00000         0.000019      0.000011     -0.136974
      1.44588      7.51299      0.00000         0.000019      0.000011     -0.136974
      4.33763      7.51299      0.00000         0.000019      0.000011     -0.136974
      5.78350      5.00866      0.00000         0.000019      0.000011     -0.136974
     -0.00000     10.01732      0.00000         0.000019      0.000011     -0.136974
     -1.44588     12.52165      0.00000         0.000019      0.000011     -0.136974
      1.44588     12.52165      0.00000         0.000019      0.000011     -0.136974
      2.89175     10.01732      0.00000         0.000019      0.000011     -0.136974
     11.56700      0.00000      0.00000         0.000019      0.000011     -0.136974
     10.12113      2.50433      0.00000         0.000019      0.000011     -0.136974
     13.01288      2.50433      0.00000         0.000019      0.000011     -0.136974
     14.45875      0.00000      0.00000         0.000019      0.000011     -0.136974
      8.67525      5.00866      0.00000         0.000019      0.000011     -0.136974
      7.22938      7.51299      0.00000         0.000019      0.000011     -0.136974
     10.12113      7.51299      0.00000         0.000019      0.000011     -0.136974
     11.56700      5.00866      0.00000         0.000019      0.000011     -0.136974
      5.78350     10.01732      0.00000         0.000019      0.000011     -0.136974
      4.33763     12.52165      0.00000         0.000019      0.000011     -0.136974
      7.22938     12.52165      0.00000         0.000019      0.000011     -0.136974
      8.67525     10.01732      0.00000         0.000019      0.000011     -0.136974
      2.89178      1.66954      2.36115         0.000007      0.000004     -0.009178
      1.44590      4.17386      2.36115         0.000007      0.000004     -0.009178
     -1.44585      4.17386      2.36115         0.000007      0.000004     -0.009178
      0.00003      1.66954      2.36115         0.000007      0.000004     -0.009178
      0.00003      6.67819      2.36115         0.000007      0.000004     -0.009178
     -1.44585      9.18252      2.36115         0.000007      0.000004     -0.009178
     -4.33760      9.18252      2.36115         0.000007      0.000004     -0.009178
     -2.89172      6.67819      2.36115         0.000007      0.000004     -0.009178
     -2.89172     11.68685      2.36115         0.000007      0.000004     -0.009178
     -4.33760     14.19118      2.36115         0.000007      0.000004     -0.009178
     -7.22935     14.19118      2.36115         0.000007      0.000004     -0.009178
     -5.78347     11.68685      2.36115         0.000007      0.000004     -0.009178
      8.67528      1.66954      2.36115         0.000007      0.000004     -0.009178
      7.22940      4.17386      2.36115         0.000007      0.000004     -0.009178
      4.33765      4.17386      2.36115         0.000007      0.000004     -0.009178
      5.78353      1.66954      2.36115         0.000007      0.000004     -0.009178
      5.78353      6.67819      2.36115         0.000007      0.000004     -0.009178
      4.33765      9.18252      2.36115         0.000007      0.000004     -0.009178
      1.44590      9.18252      2.36115         0.000007      0.000004     -0.009178
      2.89178      6.67819      2.36115         0.000007      0.000004     -0.009178
      2.89178     11.68685      2.36115         0.000007      0.000004     -0.009178
      1.44590     14.19118      2.36115         0.000007      0.000004     -0.009178
     -1.44585     14.19118      2.36115         0.000007      0.000004     -0.009178
      0.00003     11.68685      2.36115         0.000007      0.000004     -0.009178
[...]
     -1.44588     12.52165      7.16660        -0.000005     -0.000003     -0.116681
      1.44587     12.52165      7.16660        -0.000005     -0.000003     -0.116681
      2.89174     10.01732      7.16660        -0.000005     -0.000003     -0.116681
     11.56699      0.00000      7.16660        -0.000005     -0.000003     -0.116681
     10.12112      2.50433      7.16660        -0.000005     -0.000003     -0.116681
     13.01287      2.50433      7.16660        -0.000005     -0.000003     -0.116681
     14.45874      0.00000      7.16660        -0.000005     -0.000003     -0.116681
      8.67524      5.00866      7.16660        -0.000005     -0.000003     -0.116681
      7.22937      7.51299      7.16660        -0.000005     -0.000003     -0.116681
     10.12112      7.51299      7.16660        -0.000005     -0.000003     -0.116681
     11.56699      5.00866      7.16660        -0.000005     -0.000003     -0.116681
      5.78349     10.01732      7.16660        -0.000005     -0.000003     -0.116681
      4.33762     12.52165      7.16660        -0.000005     -0.000003     -0.116681
      7.22937     12.52165      7.16660        -0.000005     -0.000003     -0.116681
      8.67524     10.01732      7.16660        -0.000005     -0.000003     -0.116681
    total drift:                                0.135882     -0.238573      2.546101

  FREE ENERGIE OF THE ION-ELECTRON SYSTEM (eV)
  free  energy   TOTEN  =      -376.36593409 eV

  energy  without entropy=     -376.34183077  energy(sigma->0) =     -376.35388243

 Quasi-Newton relaxation of ions (Broydens 2nd method)
  g(Force)  = 0.718E-01   g(Stress)= 0.000E+00

 Reset! Starting new Quasi-Newton update for ions

[...]

  free energy =  -0.366843492979E+03  energy without entropy=  -0.366819538170E+03

[...]

 d Force = 0.6425547E-01[ 0.567E-01, 0.718E-01]  d Energy = 0.6563002E-01-0.137E-02
 d Force =-0.5772051E+02[-0.581E+02,-0.573E+02]  d Ewald  =-0.5772058E+02 0.732E-04

[...]

 retain information from N=  1 steps
 eigenvalues of (default step * inverse Hessian matrix)
  average eigenvalue of G=   4.7329
 eigenvalue spectrum of G is  4.7329

[...]

 d Force = 0.1043820E-01[-0.567E-02, 0.265E-01]  d Energy = 0.9157870E-02 0.128E-02
 d Force =-0.1363974E+03[-0.137E+03,-0.135E+03]  d Ewald  =-0.1363977E+03 0.251E-03

[...]

 d Force = 0.7939484E-03[ 0.479E-03, 0.111E-02]  d Energy = 0.4022630E-03 0.392E-03
 d Force = 0.4048883E+02[ 0.405E+02, 0.405E+02]  d Ewald  = 0.4048869E+02 0.140E-03

[...]

 d Force = 0.1459659E-04[-0.376E-03, 0.406E-03]  d Energy = 0.7413398E-04-0.595E-04
 d Force = 0.4886006E+02[ 0.488E+02, 0.489E+02]  d Ewald  = 0.4886006E+02-0.134E-05

[...]

 d Force = 0.1081804E-03[-0.107E-03, 0.324E-03]  d Energy = 0.1699796E-03-0.618E-04
 d Force =-0.1065818E+02[-0.107E+02,-0.107E+02]  d Ewald  =-0.1065818E+02 0.228E-06

[...]

 d Force =-0.2566113E-03[-0.277E-03,-0.236E-03]  d Energy =-0.6921556E-03 0.436E-03
 d Force =-0.7137234E+02[-0.714E+02,-0.714E+02]  d Ewald  =-0.7137234E+02 0.130E-06

[...]

 d Force =-0.5794322E-04[-0.609E-04,-0.550E-04]  d Energy =-0.1666615E-03 0.109E-03
 d Force =-0.1475082E+02[-0.148E+02,-0.148E+02]  d Ewald  =-0.1475082E+02 0.960E-08

[...]

 d Force = 0.1381867E-04[-0.275E-03, 0.303E-03]  d Energy =-0.3567897E-04 0.495E-04
 d Force =-0.3136859E+02[-0.314E+02,-0.314E+02]  d Ewald  =-0.3136859E+02 0.678E-06

[...]

 d Force = 0.1608775E-03[ 0.128E-03, 0.194E-03]  d Energy = 0.1425023E-03 0.184E-04
 d Force = 0.2862436E+02[ 0.286E+02, 0.286E+02]  d Ewald  = 0.2862436E+02-0.155E-06

[...]

 d Force = 0.8275722E-04[ 0.742E-04, 0.913E-04]  d Energy = 0.1041952E-03-0.214E-04
 d Force =-0.9769243E+01[-0.977E+01,-0.977E+01]  d Ewald  =-0.9769243E+01 0.256E-07

[...]

 d Force =-0.6950137E-04[-0.474E-03, 0.335E-03]  d Energy =-0.2445647E-04-0.450E-04
 d Force =-0.4067677E+02[-0.407E+02,-0.407E+02]  d Ewald  =-0.4067678E+02 0.140E-05

[...]

 eigenvalue-minimisations  :  7715
 total energy-change (2. order) :-0.7812807E-05  (-0.5672233E-05)
 number of electron    1584.0000120 magnetization
 augmentation part      757.5106424 magnetization

[...]

 eigenvalues of (default mixing * dielectric matrix)
  average eigenvalue GAMMA=   1.1759
  2.5847  0.9303  0.9303  0.2584

[...]

--------------------------------------- Iteration     24(   6)  ---------------------------------------

 eigenvalue-minimisations  :  4112
 total energy-change (2. order) : 0.9307405E-07  (-0.3753333E-07)
 number of electron    1584.0000120 magnetization
 augmentation part      757.5107708 magnetization

 DIPCOR: dipole corrections for dipol
 direction  3 min pos   162,
 dipolmoment           0.000000      0.000000      0.031276 electrons x Angstroem
 Tr[quadrupol]    -80839.259693

 energy correction for charged system         0.000000 eV
 dipol+quadrupol energy correction           -0.000016 eV
 added-field ion interaction          0.328381 eV  (added to PSCEN)

  free energy =  -0.367006283420E+03  energy without entropy=  -0.366982522279E+03

------------------------ aborting loop because EDIFF is reached ----------------------------------------

  Number of pair interactions contributing to vdW energy:  481896
  Edisp (eV):   -9.57560

  FORCE on cell =-STRESS in cart. coord.  units (eV):
  Direction    XX          YY          ZZ          XY          YZ          ZX
  Alpha Z  3063.51880  3063.51880  3063.51880
  Ewald  495050.11872495050.15808************    -0.05374     0.01829     0.05236
  Hartree535811.68128535811.70412************    -0.02548     0.01005     0.02244
  E(xc)   -8357.59441 -8357.59414 -8382.01971     0.00027     0.00007     0.00005
  Local  ************************************     0.07287    -0.02927    -0.07160
  n-local -1228.19607 -1225.66780 -1268.45025     0.72912     0.64232    -0.37023
  augment 13237.51936 13237.52502 13290.22687     0.00567    -0.00009    -0.00081
  Kinetic 19613.77243 19612.81727 19743.00802    -0.27537    -0.28103     0.16132
  Fock        0.00000     0.00000     0.00000     0.00000     0.00000     0.00000
  vdW       -14.33846   -14.33847    -9.91974     0.00003    -0.00003    -0.00006
  Total      10.76529    10.76585    10.48175    -0.00048     0.00081     0.00140
  in kB       2.99583     2.99599     2.91693    -0.00013     0.00023     0.00039

  FREE ENERGIE OF THE ION-ELECTRON SYSTEM (eV)
  free  energy   TOTEN  =      -376.58188741 eV

  energy  without entropy=     -376.55812627  energy(sigma->0) =     -376.57000684

 d Force = 0.1039579E-03[-0.136E-03, 0.344E-03]  d Energy = 0.1911168E-03-0.872E-04
 d Force = 0.3619645E+02[ 0.362E+02, 0.362E+02]  d Ewald  = 0.3619645E+02-0.453E-06

 Quasi-Newton relaxation of ions (Broydens 2nd method)
  g(Force)  = 0.166E-04   g(Stress)= 0.000E+00

 retain information from N=  1 steps
 eigenvalues of (default step * inverse Hessian matrix)
  average eigenvalue of G=   2.8890
 eigenvalue spectrum of G is  2.8890

 reached required accuracy - stopping structural energy minimisation