 vasp.5.4.4.18Apr17-6-g9f103f2a35 (build Jun 30 2017 19:19:18) complex

 executed on         MareNostrum4 date 2022.04.19  22:26:16

 INCAR:
 POTCAR:    PAW_PBE Ru 04Feb2005
 POTCAR:    PAW_PBE C 08Apr2002
 POTCAR:    PAW_PBE H 15Jun2001
 POTCAR:    PAW_PBE O 08Apr2002

 POTCAR:    PAW_PBE Ru 04Feb2005

 POTCAR:    PAW_PBE C 08Apr2002

 POTCAR:    PAW_PBE H 15Jun2001

 POTCAR:    PAW_PBE O 08Apr2002

 Optimization of the real space projectors (new method)

 maximal supplied QI-value         = 13.98
 optimisation between [QCUT,QGAM] = [ 10.77, 21.68] = [ 32.47,131.56] Ry
 Optimized for a Real-space Cutoff    1.51 Angstroem

   l    n(q)    QCUT    max X(q) W(low)/X(q) W(high)/X(q)  e(spline)
   2      9    10.768    61.733    0.26E-03    0.97E-04    0.28E-06
   2      9    10.768    59.886    0.26E-03    0.10E-03    0.29E-06
   0     10    10.768    23.358    0.12E-03    0.28E-03    0.38E-06
   0     10    10.768    11.320    0.93E-04    0.23E-03    0.31E-06
   1      9    10.768    14.765    0.48E-03    0.21E-03    0.19E-06
   1      9    10.768     8.283    0.36E-03    0.16E-03    0.15E-06
 Optimization of the real space projectors (new method)

[...]

   l    n(q)    QCUT    max X(q) W(low)/X(q) W(high)/X(q)  e(spline)
   0      8    10.603    19.460    0.37E-03    0.59E-03    0.23E-06
   0      8    10.603    12.209    0.35E-03    0.56E-03    0.22E-06
   1      7    10.603     4.655    0.70E-04    0.28E-03    0.29E-06
 Optimization of the real space projectors (new method)

 maximal supplied QI-value         = 24.76
 optimisation between [QCUT,QGAM] = [ 10.64, 21.54] = [ 31.73,129.89] Ry
 Optimized for a Real-space Cutoff    1.23 Angstroem

   l    n(q)    QCUT    max X(q) W(low)/X(q) W(high)/X(q)  e(spline)
   0      8    10.645    20.381    0.38E-03    0.60E-03    0.15E-06
   0      8    10.645    15.268    0.40E-03    0.65E-03    0.17E-06
   1      7    10.645     5.964    0.30E-03    0.63E-03    0.18E-06
   1      7    10.645     5.382    0.24E-03    0.53E-03    0.16E-06
  PAW_PBE Ru 04Feb2005                  :
  PAW_PBE C 08Apr2002                   :
  PAW_PBE H 15Jun2001                   :
  PAW_PBE O 08Apr2002                   :

 POSCAR: Ru  C  H  O
  positions in cartesian coordinates
 exchange correlation table for  LEXCH =        8
   RHO(1)=    0.500       N(1)  =     2000
   RHO(2)=  100.500       N(2)  =     4000

 ion  position               nearest neighbor table
   1  0.048  0.167  0.200-  30 2.66  53 2.66  29 2.66   4 2.71   2 2.71  28 2.71   6 2.71   5 2.71
                            25 2.71
   2  0.048  0.417  0.200- 109 2.45  31 2.66  54 2.66  30 2.66   1 2.71   3 2.71   7 2.71  25 2.71
                             6 2.71  26 2.71
   3  0.048  0.667  0.200-  32 2.66  55 2.66  31 2.66   4 2.71   2 2.71  26 2.71   8 2.71  27 2.71
                             7 2.71
   4  0.048  0.917  0.200-  29 2.66  56 2.66  32 2.66   3 2.71   1 2.71  27 2.71   5 2.71  28 2.71
                             8 2.71
   5  0.190  0.167  0.200-  34 2.66  29 2.66  33 2.66  10 2.71   6 2.71   8 2.71   4 2.71   9 2.71
                             1 2.71
   6  0.190  0.417  0.200-  85 2.15  90 2.59  35 2.66  30 2.66  34 2.66  86 2.67  11 2.71   7 2.71
                             5 2.71   1 2.71  10 2.71   2 2.71
   7  0.190  0.667  0.200-  89 2.15  88 2.53  90 2.53  36 2.66  31 2.66  35 2.66  12 2.71   8 2.71
                             6 2.71   2 2.71  11 2.71   3 2.71
   8  0.190  0.917  0.200-  33 2.66  32 2.66  36 2.66   9 2.71   5 2.71   7 2.71   3 2.71  12 2.71
                             4 2.71
   9  0.333  0.167  0.200-  38 2.66  33 2.66  37 2.66   8 2.71  12 2.71  10 2.71  14 2.71   5 2.71
                            13 2.71
  10  0.333  0.417  0.200-  39 2.66  34 2.66  38 2.66  86 2.71   5 2.71   9 2.71  11 2.71  15 2.71
                             6 2.71  14 2.71
  11  0.333  0.667  0.200-  87 2.16  86 2.40  88 2.59  40 2.66  35 2.66  39 2.66   6 2.71  10 2.71
                            12 2.71  16 2.71   7 2.71  15 2.71
  12  0.333  0.917  0.200-  88 2.53  37 2.66  36 2.66  40 2.66   7 2.71   9 2.71  11 2.71  13 2.71
                             8 2.71  16 2.71
  13  0.476  0.167  0.200-  42 2.66  37 2.66  41 2.66  18 2.71  14 2.71  16 2.71  12 2.71  17 2.71
                             9 2.71
  14  0.476  0.417  0.200-  43 2.66  38 2.66  42 2.66  19 2.71  13 2.71  15 2.71   9 2.71  18 2.71
                            10 2.71
  15  0.476  0.667  0.200-  44 2.66  39 2.66  43 2.66  20 2.71  14 2.71  16 2.71  10 2.71  19 2.71
                            11 2.71
  16  0.476  0.917  0.200- 111 2.24  41 2.66  40 2.66  44 2.66  17 2.71  15 2.71  13 2.71  11 2.71
                            20 2.71  12 2.71
  17  0.619  0.167  0.200-  46 2.66  41 2.66  45 2.66  16 2.71  20 2.71  18 2.71  22 2.71  13 2.71
                            21 2.71
  18  0.619  0.417  0.200-  47 2.66  42 2.66  46 2.66  13 2.71  19 2.71  17 2.71  23 2.71  14 2.71
                            22 2.71
  19  0.619  0.667  0.200-  48 2.66  43 2.66  47 2.66  14 2.71  20 2.71  18 2.71  24 2.71  15 2.71
                            23 2.71
  20  0.619  0.917  0.200-  45 2.66  44 2.66  48 2.66  15 2.71  19 2.71  17 2.71  21 2.71  16 2.71
                            24 2.71
  21  0.762  0.167  0.200-  50 2.66  45 2.66  49 2.66  26 2.71  22 2.71  24 2.71  20 2.71  25 2.71
                            17 2.71
  22  0.762  0.417  0.200-  51 2.66  46 2.66  50 2.66  27 2.71  21 2.71  23 2.71  17 2.71  26 2.71
                            18 2.71
  23  0.762  0.667  0.200-  52 2.66  47 2.66  51 2.66  28 2.71  22 2.71  24 2.71  18 2.71  27 2.71
                            19 2.71
  24  0.762  0.917  0.200-  49 2.66  48 2.66  52 2.66  25 2.71  21 2.71  23 2.71  19 2.71  28 2.71
                            20 2.71
  25  0.905  0.167  0.200-  54 2.66  49 2.66  53 2.66  24 2.71  28 2.71  26 2.71   2 2.71  21 2.71
                             1 2.71
  26  0.905  0.417  0.200-  55 2.66  50 2.66  54 2.66  21 2.71  27 2.71  25 2.71   3 2.71  22 2.71
                             2 2.71
  27  0.905  0.667  0.200-  56 2.66  51 2.66  55 2.66  22 2.71  28 2.71  26 2.71   4 2.71  23 2.71
                             3 2.71
  28  0.905  0.917  0.200-  53 2.66  52 2.66  56 2.66  23 2.71  27 2.71  25 2.71   1 2.71  24 2.71
                             4 2.71
  29  0.095  0.083  0.100-   4 2.66   5 2.66   1 2.66  60 2.66  61 2.66  57 2.66  56 2.71  30 2.71
                            32 2.71  34 2.71  53 2.71  33 2.71
  30  0.095  0.333  0.100-   1 2.66   6 2.66   2 2.66  57 2.66  62 2.66  58 2.66  53 2.71  29 2.71
                            31 2.71  35 2.71  54 2.71  34 2.71
  31  0.095  0.583  0.100-   2 2.66   7 2.66   3 2.66  58 2.66  63 2.66  59 2.66  54 2.71  30 2.71
                            32 2.71  36 2.71  55 2.71  35 2.71
  32  0.095  0.833  0.100-   3 2.66   8 2.66   4 2.66  59 2.66  64 2.66  60 2.66  55 2.71  29 2.71
                            31 2.71  33 2.71  56 2.71  36 2.71
  33  0.238  0.083  0.100-   8 2.66   9 2.66   5 2.66  64 2.66  65 2.66  61 2.66  38 2.71  34 2.71
                            36 2.71  32 2.71  37 2.71  29 2.71
  34  0.238  0.333  0.100-   5 2.66  10 2.66   6 2.66  61 2.66  66 2.66  62 2.66  39 2.71  33 2.71
                            35 2.71  29 2.71  38 2.71  30 2.71
  35  0.238  0.583  0.100-   6 2.66  11 2.66   7 2.66  62 2.66  67 2.66  63 2.66  40 2.71  34 2.71
                            36 2.71  30 2.71  39 2.71  31 2.71
  36  0.238  0.833  0.100-   7 2.66  12 2.66   8 2.66  63 2.66  68 2.66  64 2.66  37 2.71  33 2.71
                            35 2.71  31 2.71  40 2.71  32 2.71
  37  0.381  0.083  0.100-  12 2.66  13 2.66   9 2.66  68 2.66  69 2.66  65 2.66  36 2.71  40 2.71
                            38 2.71  42 2.71  33 2.71  41 2.71
  38  0.381  0.333  0.100-   9 2.66  14 2.66  10 2.66  65 2.66  70 2.66  66 2.66  33 2.71  39 2.71
                            37 2.71  43 2.71  34 2.71  42 2.71
  39  0.381  0.583  0.100-  10 2.66  15 2.66  11 2.66  66 2.66  71 2.66  67 2.66  34 2.71  40 2.71
                            38 2.71  44 2.71  35 2.71  43 2.71
  40  0.381  0.833  0.100-  11 2.66  16 2.66  12 2.66  67 2.66  72 2.66  68 2.66  35 2.71  39 2.71
                            37 2.71  41 2.71  36 2.71  44 2.71
  41  0.524  0.083  0.100-  16 2.66  17 2.66  13 2.66  72 2.66  73 2.66  69 2.66  46 2.71  42 2.71
                            44 2.71  40 2.71  45 2.71  37 2.71
  42  0.524  0.333  0.100-  13 2.66  18 2.66  14 2.66  69 2.66  74 2.66  70 2.66  47 2.71  41 2.71
                            43 2.71  37 2.71  46 2.71  38 2.71
  43  0.524  0.583  0.100-  14 2.66  19 2.66  15 2.66  70 2.66  75 2.66  71 2.66  48 2.71  42 2.71
                            44 2.71  38 2.71  47 2.71  39 2.71
  44  0.524  0.833  0.100-  15 2.66  20 2.66  16 2.66  71 2.66  76 2.66  72 2.66  45 2.71  41 2.71
                            43 2.71  39 2.71  48 2.71  40 2.71
  45  0.667  0.083  0.100-  20 2.66  21 2.66  17 2.66  76 2.66  77 2.66  73 2.66  44 2.71  48 2.71
                            46 2.71  50 2.71  41 2.71  49 2.71
  46  0.667  0.333  0.100-  17 2.66  22 2.66  18 2.66  73 2.66  78 2.66  74 2.66  41 2.71  47 2.71
                            45 2.71  51 2.71  42 2.71  50 2.71
  47  0.667  0.583  0.100-  18 2.66  23 2.66  19 2.66  74 2.66  79 2.66  75 2.66  42 2.71  48 2.71
                            46 2.71  52 2.71  43 2.71  51 2.71
  48  0.667  0.833  0.100-  19 2.66  24 2.66  20 2.66  75 2.66  80 2.66  76 2.66  43 2.71  47 2.71
                            45 2.71  49 2.71  44 2.71  52 2.71
  49  0.810  0.083  0.100-  24 2.66  25 2.66  21 2.66  80 2.66  81 2.66  77 2.66  52 2.71  50 2.71
                            54 2.71  48 2.71  45 2.71  53 2.71
  50  0.810  0.333  0.100-  21 2.66  26 2.66  22 2.66  77 2.66  82 2.66  78 2.66  51 2.71  49 2.71
                            55 2.71  45 2.71  46 2.71  54 2.71
  51  0.810  0.583  0.100-  22 2.66  27 2.66  23 2.66  78 2.66  83 2.66  79 2.66  52 2.71  50 2.71
                            56 2.71  46 2.71  47 2.71  55 2.71
  52  0.810  0.833  0.100-  23 2.66  28 2.66  24 2.66  79 2.66  84 2.66  80 2.66  51 2.71  49 2.71
                            53 2.71  47 2.71  56 2.71  48 2.71
  53  0.952  0.083  0.100-  28 2.66   1 2.66  25 2.66  84 2.66  57 2.66  81 2.66  30 2.71  56 2.71
                            54 2.71  52 2.71  29 2.71  49 2.71
  54  0.952  0.333  0.100-  25 2.66   2 2.66  26 2.66  81 2.66  58 2.66  82 2.66  31 2.71  55 2.71
                            53 2.71  49 2.71  30 2.71  50 2.71
  55  0.952  0.583  0.100-  26 2.66   3 2.66  27 2.66  82 2.66  59 2.66  83 2.66  32 2.71  56 2.71
                            54 2.71  50 2.71  31 2.71  51 2.71
  56  0.952  0.833  0.100-  27 2.66   4 2.66  28 2.66  83 2.66  60 2.66  84 2.66  29 2.71  55 2.71
                            53 2.71  51 2.71  32 2.71  52 2.71
  57  0.048  0.167  0.000-  30 2.66  53 2.66  29 2.66  58 2.71  60 2.71  62 2.71  84 2.71  81 2.71
                            61 2.71
  58  0.048  0.417  0.000-  31 2.66  54 2.66  30 2.66  57 2.71  59 2.71  63 2.71  81 2.71  62 2.71
                            82 2.71
[...]
   -.375E+02 -.966E+01 0.121E+03   0.375E+02 0.967E+01 -.121E+03   -.616E-01 -.445E-01 -.303E-01   0.395E-02 -.959E-02 -.818E+00
   -.495E+02 -.109E+02 0.144E+03   0.495E+02 0.109E+02 -.143E+03   -.372E-01 0.420E-03 0.580E-01   0.101E-01 -.356E-03 -.828E+00
   -.787E+00 0.416E+01 0.124E+03   0.802E+00 -.414E+01 -.123E+03   0.318E-01 -.463E-03 -.311E-01   0.605E-02 0.693E-02 -.836E+00
   0.989E+01 -.803E+01 0.117E+03   -.986E+01 0.803E+01 -.117E+03   0.315E-01 0.525E-01 -.221E-02   -.383E-03 0.134E-02 -.843E+00
   0.475E+01 -.149E+01 0.106E+03   -.476E+01 0.151E+01 -.105E+03   0.254E-01 0.111E-01 -.601E-01   -.124E-02 -.552E-02 -.827E+00
   -.540E+01 0.103E+02 0.112E+03   0.539E+01 -.103E+02 -.111E+03   0.295E-01 -.142E-01 -.591E-01   0.359E-02 0.207E-02 -.822E+00
   0.353E+02 0.409E+02 0.141E+03   -.352E+02 -.409E+02 -.140E+03   -.945E-02 -.230E-01 0.774E-01   0.331E-02 0.556E-02 -.824E+00
   0.545E+02 0.259E+02 0.154E+03   -.543E+02 -.258E+02 -.153E+03   -.115E+00 -.745E-01 0.514E-01   0.613E-02 0.129E-02 -.833E+00
   0.518E+02 0.943E+01 0.133E+03   -.517E+02 -.943E+01 -.132E+03   -.530E-02 0.753E-02 0.101E+00   0.467E-02 -.706E-03 -.832E+00
   0.337E+02 0.250E+02 0.122E+03   -.337E+02 -.250E+02 -.121E+03   0.247E-01 0.214E-03 -.305E-01   0.433E-02 0.463E-02 -.818E+00
   0.207E+02 0.213E+02 0.138E+04   -.207E+02 -.212E+02 -.137E+04   -.134E-01 0.123E-01 -.385E+01   0.640E-02 0.954E-02 -.387E+00
   0.280E+02 0.143E+02 0.139E+04   -.278E+02 -.142E+02 -.138E+04   -.104E+00 -.293E-01 -.368E+01   0.381E-02 0.800E-02 -.389E+00
   0.288E+02 0.730E+01 0.138E+04   -.288E+02 -.729E+01 -.137E+04   -.158E-01 0.116E-01 -.381E+01   0.169E-01 0.228E-02 -.391E+00
   0.217E+02 0.144E+02 0.137E+04   -.217E+02 -.144E+02 -.137E+04   -.115E-01 -.951E-02 -.377E+01   0.169E-01 0.554E-02 -.387E+00
[...]
   -.571E+02 0.393E+01 -.206E+03   0.611E+02 -.145E+01 0.209E+03   -.402E+01 -.254E+01 -.289E+01   0.198E-02 -.303E-03 0.318E-01
   0.116E+02 0.742E+02 -.198E+03   -.132E+02 -.791E+02 0.201E+03   0.166E+01 0.486E+01 -.273E+01   -.118E-02 -.318E-02 0.313E-01
   -.347E+02 0.448E+02 -.150E+03   0.368E+02 -.461E+02 0.146E+03   -.213E+01 0.130E+01 0.436E+01   -.216E-03 -.483E-03 0.220E-01
   0.302E+02 -.250E+02 -.239E+03   -.324E+02 0.262E+02 0.244E+03   0.217E+01 -.123E+01 -.494E+01   0.134E-03 0.161E-02 0.322E-01
   -.204E+02 0.642E+02 -.204E+03   0.197E+02 -.689E+02 0.207E+03   0.716E+00 0.471E+01 -.273E+01   0.123E-02 -.204E-02 0.310E-01
   -.518E+02 -.799E+02 -.195E+03   0.578E+02 0.830E+02 0.198E+03   -.596E+01 -.307E+01 -.272E+01   0.900E-03 0.142E-02 0.259E-01
   -.263E+01 -.693E+01 -.212E+03   0.831E+00 0.764E+01 0.217E+03   0.183E+01 -.713E+00 -.533E+01   0.534E-03 0.544E-03 0.336E-01
   -.825E+02 0.335E+02 -.170E+03   0.876E+02 -.361E+02 0.170E+03   -.509E+01 0.261E+01 -.278E+00   0.238E-02 -.652E-03 0.304E-01
   -.876E+02 -.257E+02 -.115E+03   0.927E+02 0.259E+02 0.109E+03   -.505E+01 -.200E+00 0.597E+01   0.134E-02 0.382E-03 0.274E-01
   -.566E+02 0.314E+02 -.141E+03   0.589E+02 -.328E+02 0.137E+03   -.228E+01 0.139E+01 0.413E+01   0.119E-02 -.134E-03 0.227E-01
   0.385E+03 0.108E+03 -.118E+04   -.428E+03 -.923E+02 0.119E+04   0.434E+02 -.153E+02 -.680E+01   -.820E-02 -.458E-02 0.140E+00
   0.127E+03 0.225E+03 -.121E+04   -.161E+03 -.234E+03 0.123E+04   0.337E+02 0.861E+01 -.211E+02   -.766E-02 -.116E-01 0.160E+00
   0.249E+02 -.308E+03 -.102E+04   -.502E+02 0.326E+03 0.100E+04   0.253E+02 -.177E+02 0.184E+02   0.301E-02 0.709E-03 0.138E+00
   -.193E+03 -.275E+03 -.104E+04   0.178E+03 0.309E+03 0.106E+04   0.150E+02 -.344E+02 -.184E+02   0.276E-02 0.325E-02 0.176E+00
   -.844E+02 0.447E+02 0.110E+03   0.227E-12 0.136E-11 -.114E-10   0.844E+02 -.447E+02 -.658E+02   -.293E-02 -.307E-01 -.438E+02

 POSITION                                       TOTAL-FORCE (eV/Angst)
     -0.00001      1.56613      4.29100        -0.029345     -0.424009     -1.100597
     -1.35631      3.91531      4.29100        -0.557474     -0.286470     -0.869728
     -2.71261      6.26449      4.29100        -0.420184      0.193258     -1.184567
     -4.06891      8.61367      4.29100        -0.020814     -0.045035     -0.996589
      2.71259      1.56613      4.29100         0.021438     -0.343007     -1.089488
      1.35629      3.91531      4.29100         0.124924     -0.675858     -0.473701
     -0.00001      6.26449      4.29100        -0.649817      0.479677     -0.653047
     -1.35631      8.61367      4.29100        -0.320611      0.284717     -1.173562
      5.42519      1.56613      4.29100         0.013624      0.039918     -1.053135
      4.06889      3.91531      4.29100         0.480324     -0.177647     -1.052457
      2.71259      6.26449      4.29100         0.914891      0.231063     -0.249851
      1.35629      8.61367      4.29100        -0.291144      0.370401     -0.905693
      8.13779      1.56613      4.29100        -0.075397      0.181531     -1.131076
      6.78149      3.91531      4.29100         0.055000     -0.014349     -1.010467
      5.42519      6.26449      4.29100         0.483066     -0.069907     -1.213728
      4.06889      8.61367      4.29100         0.163372      0.113868     -0.665889
     10.85039      1.56613      4.29100         0.122409      0.162974     -1.091626
      9.49409      3.91531      4.29100         0.015170      0.017935     -1.009558
      8.13779      6.26449      4.29100         0.061889      0.013273     -0.988030
      6.78149      8.61367      4.29100         0.318867      0.063120     -1.192505
     13.56299      1.56613      4.29100        -0.037708     -0.066935     -0.927431
     12.20669      3.91531      4.29100        -0.018543     -0.036774     -0.993673
     10.85039      6.26449      4.29100        -0.013396     -0.012445     -1.016057
      9.49409      8.61367      4.29100        -0.071746     -0.038670     -0.943787
     16.27559      1.56613      4.29100        -0.045240     -0.089473     -1.021700
     14.91929      3.91531      4.29100        -0.115727      0.011496     -1.045055
     13.56299      6.26449      4.29100         0.003117      0.033655     -1.003236
     12.20669      8.61367      4.29100         0.023164     -0.002194     -0.993053
      1.35631      0.78305      2.14564         0.000241      0.041040     -0.018510
      0.00001      3.13223      2.14564        -0.071460      0.052316     -0.118911
     -1.35629      5.48141      2.14564         0.055122     -0.091144     -0.105609
     -2.71259      7.83059      2.14564         0.033688     -0.069041     -0.000819
      4.06891      0.78305      2.14564        -0.055054     -0.089377      0.192095
      2.71261      3.13223      2.14564         0.011476      0.027072     -0.174663
      1.35631      5.48141      2.14564        -0.017936      0.035444     -1.116125
      0.00001      7.83059      2.14564         0.093507      0.049297     -0.021404
      6.78151      0.78305      2.14564        -0.022089     -0.097407      0.028439
      5.42521      3.13223      2.14564        -0.103839     -0.018863      0.181645
      4.06891      5.48141      2.14564        -0.034884     -0.156769     -0.115513
      2.71261      7.83059      2.14564        -0.089564      0.054936     -0.239132
      9.49411      0.78305      2.14564         0.000453      0.031986      0.011898
      8.13781      3.13223      2.14564        -0.020064     -0.055584      0.120327
      6.78151      5.48141      2.14564        -0.083067      0.030835      0.178574
      5.42521      7.83059      2.14564        -0.055358     -0.019361     -0.093059
     12.20671      0.78305      2.14564        -0.031641     -0.010581     -0.041664
     10.85041      3.13223      2.14564        -0.097792     -0.020086      0.121465
      9.49411      5.48141      2.14564        -0.062415     -0.042885     -0.005333
      8.13781      7.83059      2.14564        -0.055540      0.000630      0.070452
     14.91931      0.78305      2.14564         0.052375      0.022273     -0.006450
     13.56301      3.13223      2.14564         0.059742      0.052984      0.037888
     12.20671      5.48141      2.14564         0.013593      0.029840     -0.031861
     10.85041      7.83059      2.14564         0.024520     -0.016053     -0.013606
     17.63191      0.78305      2.14564         0.033831      0.043351      0.112158
     16.27561      3.13223      2.14564         0.089271      0.038287      0.232426
     14.91931      5.48141      2.14564         0.049978      0.002791      0.140510
     13.56301      7.83059      2.14564        -0.021701     -0.014116      0.029743
     -0.00001      1.56613      0.00000         0.020527      0.033884      0.967887
     -1.35631      3.91531      0.00000         0.059908      0.072499      0.929389
     -2.71261      6.26449      0.00000         0.041660      0.029435      0.955260
     -4.06891      8.61367      0.00000         0.016579      0.001747      0.963690
[...]
     -0.67556      3.22314      6.87452        -0.002261      0.019029      0.012615
      3.33316      2.78365      8.02147         0.001128      0.001651     -0.006360
      2.22403      1.35528      7.97492         0.001614      0.000184      0.009274
      2.97522      1.98490      6.45647         0.000833     -0.007829      0.017795
      3.23784      7.50765      8.17975         0.001607     -0.006577     -0.015016
      4.85686      5.64395      7.97450         0.008617      0.001017     -0.008219
      4.67494      8.94124      6.90989         0.018545      0.014924     -0.006590
      5.62938      7.57798      9.24474         0.000842     -0.004051      0.000637
      6.97850      6.93806      8.26285        -0.001100     -0.009812      0.000720
      6.78958      8.76628      6.93394         0.006954     -0.010490     -0.003644
      5.48744      6.29449      6.44927         0.014713     -0.004633     -0.006303
     -0.95073      4.15538      6.69768         0.004026     -0.014536      0.009503
      1.38958      3.07716      7.30500        -0.016377      0.001653     -0.005539
      3.83720      8.54670      6.51377        -0.014072     -0.002137     -0.007359
      6.15635      8.77971      7.69296        -0.013447     -0.000081     -0.005164
    total drift:                                0.077322      0.027653      0.311203

  FREE ENERGIE OF THE ION-ELECTRON SYSTEM (eV)
  free  energy   TOTEN  =      -896.62526851 eV

  energy  without entropy=     -896.59268640  energy(sigma->0) =     -896.60897746

[...]

  free energy =  -0.888545365480E+03  energy without entropy=  -0.888512827111E+03

[...]

 d Force = 0.2607867E-03[ 0.195E-03, 0.327E-03]  d Energy = 0.9665527E-03-0.706E-03
 d Force = 0.6804678E+00[ 0.680E+00, 0.681E+00]  d Ewald  = 0.6804677E+00 0.111E-06

 Steepest descent step on ions:
 trial-energy change:   -0.000967  1 .order   -0.000261   -0.000327   -0.000195
  (g-gl).g = 0.327E-03      g.g   = 0.327E-03  gl.gl    = 0.000E+00
 g(Force)  = 0.327E-03   g(Stress)= 0.000E+00 ortho     = 0.000E+00
 gamma     =   0.00000
 trial     =   1.00000
 opt step  =   2.46754  (harmonic =   2.46754) maximal distance =0.00240385
 next E    =  -896.625672   (d E  =  -0.00040)

[...]

 d Force = 0.1379272E-03[-0.960E-05, 0.285E-03]  d Energy = 0.1521225E-03-0.142E-04
 d Force = 0.9983067E+00[ 0.998E+00, 0.998E+00]  d Ewald  = 0.9983065E+00 0.210E-06

[...]

 Conjugate gradient step on ions:
 trial-energy change:   -0.000172  1 .order   -0.000170   -0.000184   -0.000157
  (g-gl).g = 0.417E-03      g.g   = 0.410E-03  gl.gl    = 0.327E-03
 g(Force)  = 0.410E-03   g(Stress)= 0.000E+00 ortho     =-0.654E-05
 gamma     =   1.27500
 trial     =   0.45714
 opt step  =   1.82854  (harmonic =   3.09077) maximal distance =0.00387601
 next E    =  -896.627009   (d E  =  -0.00062)

[...]

 d Force =-0.8320991E-04[-0.596E-03, 0.429E-03]  d Energy =-0.9311855E-04 0.991E-05
 d Force = 0.7581839E+01[ 0.759E+01, 0.758E+01]  d Ewald  = 0.7581832E+01 0.632E-05

[...]

 d Force = 0.1743876E-03[ 0.252E-05, 0.346E-03]  d Energy = 0.1856989E-03-0.113E-04
 d Force =-0.4407321E+01[-0.441E+01,-0.441E+01]  d Ewald  =-0.4407320E+01-0.110E-05

[...]

 Conjugate gradient step on ions:
 trial-energy change:   -0.000198  1 .order   -0.000217   -0.000287   -0.000147
  (g-gl).g = 0.145E-03      g.g   = 0.223E-03  gl.gl    = 0.215E-03
 g(Force)  = 0.223E-03   g(Stress)= 0.000E+00 ortho     = 0.104E-04
 gamma     =   0.67307
 trial     =   1.24851
 opt step  =   2.56634  (harmonic =   2.56634) maximal distance =0.00195677
 next E    =  -896.627841   (d E  =  -0.00030)

[...]

 d Force = 0.2637326E-04[-0.289E-05, 0.556E-04]  d Energy = 0.1677140E-04 0.960E-05
 d Force = 0.1245286E+01[ 0.125E+01, 0.125E+01]  d Ewald  = 0.1245286E+01-0.349E-07

[...]

 d Force = 0.5545127E-05[-0.456E-06, 0.115E-04]  d Energy =-0.7110673E-06 0.626E-05
 d Force = 0.2887019E+00[ 0.289E+00, 0.289E+00]  d Ewald  = 0.2887021E+00-0.253E-06

[...]

 d Force = 0.9768493E-05[-0.371E-06, 0.199E-04]  d Energy =-0.2207290E-05 0.120E-04
 d Force = 0.3391706E+00[ 0.339E+00, 0.339E+00]  d Ewald  = 0.3391705E+00 0.152E-06

[...]

 Conjugate gradient step on ions:
 trial-energy change:   -0.000085  1 .order   -0.000088   -0.000132   -0.000045
  (g-gl).g = 0.651E-04      g.g   = 0.651E-04  gl.gl    = 0.696E-04
 g(Force)  = 0.651E-04   g(Stress)= 0.000E+00 ortho     =-0.405E-06
 gamma     =   0.93442
 trial     =   2.03410
 opt step  =   3.07488  (harmonic =   3.07488) maximal distance =0.00219642
 next E    =  -896.629266   (d E  =  -0.00010)

[...]

 eigenvalue-minimisations  :  3092
 total energy-change (2. order) :-0.1816694E-04  (-0.2637150E-05)
 number of electron     750.0000140 magnetization
 augmentation part      234.7907961 magnetization

[...]

 eigenvalues of (default mixing * dielectric matrix)
  average eigenvalue GAMMA=   0.6548
  1.8147  0.5440  0.1633  0.0971

[...]

--------------------------------------- Iteration     32(   6)  ---------------------------------------

 eigenvalue-minimisations  :  2461
 total energy-change (2. order) : 0.2068649E-05  (-0.1092969E-05)
 number of electron     750.0000140 magnetization
 augmentation part      234.7910194 magnetization

 DIPCOR: dipole corrections for dipol
 direction  3 min pos   150,
 dipolmoment           0.000000      0.000000     -1.151798 electrons x Angstroem
 Tr[quadrupol]    -30401.509022

 energy correction for charged system         0.000000 eV
 dipol+quadrupol energy correction           -0.031675 eV
 added-field ion interaction        -36.653166 eV  (added to PSCEN)

  free energy =  -0.888552625860E+03  energy without entropy=  -0.888520127831E+03

------------------------ aborting loop because EDIFF is reached ----------------------------------------

  Number of pair interactions contributing to vdW energy:  435777
  Edisp (eV):   -8.07671

  FORCE on cell =-STRESS in cart. coord.  units (eV):
  Direction    XX          YY          ZZ          XY          YZ          ZX
  Alpha Z  1009.79306  1009.79306  1009.79306
  Ewald  198182.19601198663.53742************   229.25502  -439.01326   707.77075
  Hartree206593.10996206994.52884************   138.45458  -251.45011   613.22295
  E(xc)   -3465.84855 -3464.71233 -3470.45771    -0.06508    -0.63232     0.04063
  Local  ************************417981.55375  -365.94385   658.71933 -1332.27114
  n-local   742.26588   743.93621   540.54873     2.26849    -4.50755     0.66773
  augment  3828.12697  3821.08887  3843.83317     0.54619     2.23482     0.57153
  Kinetic  9109.60893  9069.47136  9211.17617    -3.00195    33.72366     9.98323
  Fock        0.00000     0.00000     0.00000     0.00000     0.00000     0.00000
  vdW        -9.10392    -9.08852    -7.14782    -0.09677     0.05994    -0.12408
  Total    -104.58128  -106.04319  -119.12743     1.41663    -0.86548    -0.13841
  in kB     -43.80799   -44.42037   -49.90122     0.59341    -0.36254    -0.05798

  FREE ENERGIE OF THE ION-ELECTRON SYSTEM (eV)
  free  energy   TOTEN  =      -896.62933330 eV

  energy  without entropy=     -896.59683527  energy(sigma->0) =     -896.61308428

 d Force = 0.8033468E-04[ 0.618E-04, 0.989E-04]  d Energy = 0.7417657E-04 0.616E-05
 d Force = 0.2105209E+00[ 0.211E+00, 0.210E+00]  d Ewald  = 0.2105206E+00 0.344E-06

 Conjugate gradient step on ions:
 trial-energy change:   -0.000074  1 .order   -0.000080   -0.000099   -0.000062
  (g-gl).g = 0.868E-04      g.g   = 0.880E-04  gl.gl    = 0.651E-04
 g(Force)  = 0.880E-04   g(Stress)= 0.000E+00 ortho     = 0.157E-05
 gamma     =   1.33223
 trial     =   1.09725
 opt step  =   2.92806  (harmonic =   2.92806) maximal distance =0.00285494
 next E    =  -896.629391   (d E  =  -0.00013)

 reached required accuracy - stopping structural energy minimisation