 vasp.5.4.4.18Apr17-6-g9f103f2a35 (build Jun 30 2017 19:19:18) complex

 executed on         MareNostrum4 date 2022.04.19  22:26:08

 INCAR:
 POTCAR:    PAW_PBE Ni 02Aug2007
 POTCAR:    PAW_PBE C 08Apr2002
 POTCAR:    PAW_PBE H 15Jun2001
 POTCAR:    PAW_PBE O 08Apr2002

 POTCAR:    PAW_PBE Ni 02Aug2007

 POTCAR:    PAW_PBE C 08Apr2002

 POTCAR:    PAW_PBE H 15Jun2001

 POTCAR:    PAW_PBE O 08Apr2002

 Optimization of the real space projectors (new method)

 maximal supplied QI-value         = 16.25
 optimisation between [QCUT,QGAM] = [ 10.73, 21.61] = [ 32.22,130.83] Ry
 Optimized for a Real-space Cutoff    1.34 Angstroem

   l    n(q)    QCUT    max X(q) W(low)/X(q) W(high)/X(q)  e(spline)
   2      8    10.726    60.317    0.47E-03    0.39E-03    0.97E-07
   2      8    10.726    55.921    0.48E-03    0.39E-03    0.10E-06
   0      9    10.726    51.690    0.35E-03    0.32E-03    0.97E-07
   0      9    10.726    30.015    0.31E-03    0.29E-03    0.88E-07
   1      8    10.726    18.849    0.34E-03    0.47E-04    0.17E-06
   1      8    10.726    14.624    0.29E-03    0.31E-04    0.15E-06
 Optimization of the real space projectors (new method)

[...]

   l    n(q)    QCUT    max X(q) W(low)/X(q) W(high)/X(q)  e(spline)
   0      8    10.603    19.460    0.37E-03    0.59E-03    0.23E-06
   0      8    10.603    12.209    0.35E-03    0.56E-03    0.22E-06
   1      7    10.603     4.655    0.70E-04    0.28E-03    0.29E-06
 Optimization of the real space projectors (new method)

 maximal supplied QI-value         = 24.76
 optimisation between [QCUT,QGAM] = [ 10.64, 21.54] = [ 31.73,129.89] Ry
 Optimized for a Real-space Cutoff    1.23 Angstroem

   l    n(q)    QCUT    max X(q) W(low)/X(q) W(high)/X(q)  e(spline)
   0      8    10.645    20.381    0.38E-03    0.60E-03    0.15E-06
   0      8    10.645    15.268    0.40E-03    0.65E-03    0.17E-06
   1      7    10.645     5.964    0.30E-03    0.63E-03    0.18E-06
   1      7    10.645     5.382    0.24E-03    0.53E-03    0.16E-06
  PAW_PBE Ni 02Aug2007                  :
  PAW_PBE C 08Apr2002                   :
  PAW_PBE H 15Jun2001                   :
  PAW_PBE O 08Apr2002                   :

 POSCAR: Ni  C  H  O
  positions in cartesian coordinates
 exchange correlation table for  LEXCH =        8
   RHO(1)=    0.500       N(1)  =     2000
   RHO(2)=  100.500       N(2)  =     4000

 ion  position               nearest neighbor table
   1  0.000  0.250  0.190-  30 2.46  53 2.46  54 2.46   4 2.49   2 2.49  28 2.49   6 2.49  25 2.49
                             5 2.49
   2  0.000  0.500  0.190-  31 2.46  54 2.46  55 2.46   3 2.49   1 2.49  25 2.49   7 2.49  26 2.49
                             6 2.49
   3  0.000  0.750  0.190-  32 2.46  55 2.46  56 2.46   4 2.49   2 2.49  26 2.49   8 2.49  27 2.49
                             7 2.49
   4  0.000  1.000  0.190-  29 2.46  56 2.46  53 2.46   3 2.49   1 2.49  27 2.49   5 2.49  28 2.49
                             8 2.49
   5  0.143  0.250  0.190-  90 2.18  34 2.46  29 2.46  30 2.46   6 2.49   8 2.49  10 2.49   4 2.49
                             9 2.49   1 2.49
   6  0.143  0.500  0.190-  35 2.46  30 2.46  31 2.46   7 2.49   5 2.49  11 2.49   1 2.49  10 2.49
                             2 2.49
   7  0.143  0.750  0.190-  36 2.46  31 2.46  32 2.46   8 2.49   6 2.49  12 2.49   2 2.49  11 2.49
                             3 2.49
   8  0.143  1.000  0.190-  33 2.46  32 2.46  29 2.46   7 2.49   5 2.49   9 2.49   3 2.49  12 2.49
                             4 2.49
   9  0.286  0.250  0.190-  86 2.14  85 2.18  38 2.46  33 2.46  34 2.46  12 2.49  10 2.49   8 2.49
                            14 2.49   5 2.49  13 2.49
  10  0.286  0.500  0.190-  89 2.02  88 2.12  39 2.46  34 2.46  35 2.46  11 2.49   9 2.49   5 2.49
                            15 2.49   6 2.49  14 2.49
  11  0.286  0.750  0.190-  40 2.46  35 2.46  36 2.46  12 2.49  10 2.49   6 2.49  16 2.49   7 2.49
                            15 2.49
  12  0.286  1.000  0.190-  37 2.46  36 2.46  33 2.46  11 2.49   9 2.49   7 2.49  13 2.49   8 2.49
                            16 2.49
  13  0.429  0.250  0.190-  42 2.46  37 2.46  38 2.46  16 2.49  14 2.49  18 2.49  12 2.49   9 2.49
                            17 2.49
  14  0.429  0.500  0.190-  87 2.04  43 2.46  38 2.46  39 2.46  13 2.49  15 2.49   9 2.49  19 2.49
                            18 2.49  10 2.49  88 2.56
  15  0.429  0.750  0.190-  44 2.46  39 2.46  40 2.46  16 2.49  14 2.49  20 2.49  10 2.49  11 2.49
                            19 2.49
  16  0.429  1.000  0.190-  41 2.46  40 2.46  37 2.46  15 2.49  13 2.49  17 2.49  11 2.49  20 2.49
                            12 2.49
  17  0.571  0.250  0.190-  95 2.02  46 2.46  41 2.46  42 2.46  18 2.49  20 2.49  22 2.49  16 2.49
                            21 2.49  13 2.49  94 2.52
  18  0.571  0.500  0.190- 124 2.11  47 2.46  42 2.46  43 2.46  17 2.49  19 2.49  23 2.49  13 2.49
                            22 2.49  14 2.49
  19  0.571  0.750  0.190-  48 2.46  43 2.46  44 2.46  20 2.49  18 2.49  24 2.49  14 2.49  23 2.49
                            15 2.49
  20  0.571  1.000  0.190-  45 2.46  44 2.46  41 2.46  19 2.49  17 2.49  21 2.49  15 2.49  24 2.49
                            16 2.49
  21  0.714  0.250  0.190-  99 2.10  97 2.13  50 2.46  45 2.46  46 2.46  24 2.49  22 2.49  20 2.49
                            26 2.49  17 2.49  25 2.49
  22  0.714  0.500  0.190-  96 2.18  94 2.19  51 2.46  46 2.46  47 2.46  23 2.49  21 2.49  17 2.49
                            27 2.49  18 2.49  26 2.49
  23  0.714  0.750  0.190-  52 2.46  47 2.46  48 2.46  24 2.49  22 2.49  18 2.49  28 2.49  19 2.49
                            27 2.49
  24  0.714  1.000  0.190-  49 2.46  48 2.46  45 2.46  23 2.49  21 2.49  19 2.49  25 2.49  20 2.49
                            28 2.49
  25  0.857  0.250  0.190-  54 2.46  49 2.46  50 2.46  28 2.49  26 2.49   2 2.49  24 2.49   1 2.49
                            21 2.49
  26  0.857  0.500  0.190-  98 2.22  55 2.46  50 2.46  51 2.46  25 2.49  27 2.49   3 2.49  21 2.49
                             2 2.49  22 2.49
  27  0.857  0.750  0.190-  56 2.46  51 2.46  52 2.46  28 2.49  26 2.49   4 2.49  22 2.49   3 2.49
                            23 2.49
  28  0.857  1.000  0.190-  53 2.46  52 2.46  49 2.46  27 2.49  25 2.49   1 2.49  23 2.49   4 2.49
                            24 2.49
  29  0.095  0.083  0.095-   4 2.46   5 2.46   8 2.46  60 2.46  57 2.46  61 2.46  32 2.49  30 2.49
                            34 2.49  56 2.49  33 2.49  53 2.49
  30  0.095  0.333  0.095-   1 2.46   6 2.46   5 2.46  57 2.46  58 2.46  62 2.46  31 2.49  29 2.49
                            35 2.49  53 2.49  34 2.49  54 2.49
  31  0.095  0.583  0.095-   2 2.46   7 2.46   6 2.46  58 2.46  59 2.46  63 2.46  32 2.49  30 2.49
                            36 2.49  54 2.49  35 2.49  55 2.49
  32  0.095  0.833  0.095-   3 2.46   8 2.46   7 2.46  59 2.46  60 2.46  64 2.46  31 2.49  29 2.49
                            33 2.49  55 2.49  36 2.49  56 2.49
  33  0.238  0.083  0.095-   8 2.46   9 2.46  12 2.46  64 2.46  61 2.46  65 2.46  36 2.49  34 2.49
                            32 2.49  38 2.49  29 2.49  37 2.49
  34  0.238  0.333  0.095-   5 2.46  10 2.46   9 2.46  61 2.46  62 2.46  66 2.46  35 2.49  33 2.49
                            29 2.49  39 2.49  30 2.49  38 2.49
  35  0.238  0.583  0.095-   6 2.46  11 2.46  10 2.46  62 2.46  63 2.46  67 2.46  36 2.49  34 2.49
                            30 2.49  40 2.49  31 2.49  39 2.49
  36  0.238  0.833  0.095-   7 2.46  12 2.46  11 2.46  63 2.46  64 2.46  68 2.46  35 2.49  33 2.49
                            31 2.49  37 2.49  32 2.49  40 2.49
  37  0.381  0.083  0.095-  12 2.46  13 2.46  16 2.46  68 2.46  65 2.46  69 2.46  40 2.49  38 2.49
                            42 2.49  36 2.49  33 2.49  41 2.49
  38  0.381  0.333  0.095-   9 2.46  14 2.46  13 2.46  65 2.46  66 2.46  70 2.46  39 2.49  37 2.49
                            43 2.49  33 2.49  34 2.49  42 2.49
  39  0.381  0.583  0.095-  10 2.46  15 2.46  14 2.46  66 2.46  67 2.46  71 2.46  40 2.49  38 2.49
                            44 2.49  34 2.49  35 2.49  43 2.49
  40  0.381  0.833  0.095-  11 2.46  16 2.46  15 2.46  67 2.46  68 2.46  72 2.46  39 2.49  37 2.49
                            41 2.49  35 2.49  44 2.49  36 2.49
  41  0.524  0.083  0.095-  16 2.46  17 2.46  20 2.46  72 2.46  69 2.46  73 2.46  44 2.49  42 2.49
                            46 2.49  40 2.49  45 2.49  37 2.49
  42  0.524  0.333  0.095-  13 2.46  18 2.46  17 2.46  69 2.46  70 2.46  74 2.46  43 2.49  41 2.49
                            47 2.49  37 2.49  46 2.49  38 2.49
  43  0.524  0.583  0.095-  14 2.46  19 2.46  18 2.46  70 2.46  71 2.46  75 2.46  44 2.49  42 2.49
                            48 2.49  38 2.49  47 2.49  39 2.49
  44  0.524  0.833  0.095-  15 2.46  20 2.46  19 2.46  71 2.46  72 2.46  76 2.46  43 2.49  41 2.49
                            45 2.49  39 2.49  48 2.49  40 2.49
  45  0.667  0.083  0.095-  20 2.46  21 2.46  24 2.46  76 2.46  73 2.46  77 2.46  48 2.49  46 2.49
                            44 2.49  50 2.49  41 2.49  49 2.49
  46  0.667  0.333  0.095-  17 2.46  22 2.46  21 2.46  73 2.46  74 2.46  78 2.46  47 2.49  45 2.49
                            41 2.49  51 2.49  42 2.49  50 2.49
  47  0.667  0.583  0.095-  18 2.46  23 2.46  22 2.46  74 2.46  75 2.46  79 2.46  48 2.49  46 2.49
                            42 2.49  52 2.49  43 2.49  51 2.49
  48  0.667  0.833  0.095-  19 2.46  24 2.46  23 2.46  75 2.46  76 2.46  80 2.46  47 2.49  45 2.49
                            43 2.49  49 2.49  44 2.49  52 2.49
  49  0.810  0.083  0.095-  24 2.46  25 2.46  28 2.46  80 2.46  77 2.46  81 2.46  52 2.49  50 2.49
                            54 2.49  48 2.49  53 2.49  45 2.49
  50  0.810  0.333  0.095-  21 2.46  26 2.46  25 2.46  77 2.46  78 2.46  82 2.46  51 2.49  49 2.49
                            55 2.49  45 2.49  54 2.49  46 2.49
  51  0.810  0.583  0.095-  22 2.46  27 2.46  26 2.46  78 2.46  79 2.46  83 2.46  52 2.49  50 2.49
                            56 2.49  46 2.49  55 2.49  47 2.49
  52  0.810  0.833  0.095-  23 2.46  28 2.46  27 2.46  79 2.46  80 2.46  84 2.46  51 2.49  49 2.49
                            53 2.49  47 2.49  56 2.49  48 2.49
  53  0.952  0.083  0.095-  28 2.46   1 2.46   4 2.46  84 2.46  81 2.46  57 2.46  56 2.49  54 2.49
                            52 2.49  30 2.49  49 2.49  29 2.49
  54  0.952  0.333  0.095-  25 2.46   2 2.46   1 2.46  81 2.46  82 2.46  58 2.46  55 2.49  53 2.49
                            49 2.49  31 2.49  50 2.49  30 2.49
  55  0.952  0.583  0.095-  26 2.46   3 2.46   2 2.46  82 2.46  83 2.46  59 2.46  56 2.49  54 2.49
                            50 2.49  32 2.49  51 2.49  31 2.49
  56  0.952  0.833  0.095-  27 2.46   4 2.46   3 2.46  83 2.46  84 2.46  60 2.46  55 2.49  53 2.49
                            51 2.49  29 2.49  52 2.49  32 2.49
  57  0.048  0.167  0.000-  30 2.46  29 2.46  53 2.46  58 2.49  60 2.49  62 2.49  84 2.49  81 2.49
                            61 2.49
  58  0.048  0.417  0.000-  31 2.46  30 2.46  54 2.46  57 2.49  59 2.49  63 2.49  81 2.49  62 2.49
                            82 2.49
[...]
   -.284E+02 -.496E+02 0.491E+03   0.272E+02 0.464E+02 -.494E+03   -.335E-01 0.191E+00 -.335E+00   0.121E+01 0.293E+01 0.323E+01
   -.284E+02 -.508E+02 0.422E+03   0.255E+02 0.534E+02 -.427E+03   0.562E-01 0.494E-01 0.141E+00   0.277E+01 -.265E+01 0.449E+01
   -.471E+02 -.229E+02 0.363E+03   0.457E+02 0.264E+02 -.370E+03   0.537E-01 -.378E-01 0.308E-01   0.140E+01 -.347E+01 0.622E+01
   -.762E+02 -.552E+01 0.406E+03   0.774E+02 0.506E+01 -.412E+03   0.205E+00 -.124E-01 -.459E+00   -.151E+01 0.458E+00 0.684E+01
   -.632E+02 -.410E+02 0.441E+03   0.675E+02 0.392E+02 -.445E+03   0.968E-01 0.177E+00 -.400E+00   -.438E+01 0.158E+01 0.341E+01
   -.341E+02 -.579E+02 0.400E+03   0.362E+02 0.602E+02 -.403E+03   -.298E-01 0.993E-02 0.550E-01   -.198E+01 -.231E+01 0.328E+01
   0.624E+01 -.157E+02 0.348E+03   -.395E+01 0.177E+02 -.353E+03   -.700E-02 0.343E-01 0.109E+00   -.225E+01 -.196E+01 0.509E+01
   -.195E+02 -.742E+01 0.332E+03   0.195E+02 0.990E+01 -.339E+03   -.276E-02 0.123E-01 0.929E-01   -.589E-01 -.249E+01 0.724E+01
   -.455E+02 -.778E+01 0.352E+03   0.477E+02 0.763E+01 -.357E+03   0.144E+00 0.899E-01 -.108E+00   -.239E+01 0.110E-01 0.552E+01
   -.203E+02 -.147E+02 0.367E+03   0.247E+02 0.155E+02 -.371E+03   0.129E-01 -.195E-01 0.565E-01   -.434E+01 -.777E+00 0.391E+01
   0.139E+02 0.382E+01 0.266E+04   -.121E+02 -.155E+01 -.266E+04   -.868E-02 0.480E-03 -.125E+01   -.179E+01 -.223E+01 0.228E+01
   0.875E+01 0.182E+01 0.265E+04   -.820E+01 0.506E+00 -.265E+04   -.199E-01 0.441E-02 -.129E+01   -.574E+00 -.230E+01 0.241E+01
   0.122E+01 0.466E+01 0.265E+04   0.945E+00 -.494E+01 -.265E+04   0.909E-01 0.526E-01 -.140E+01   -.224E+01 0.248E+00 0.218E+01
   0.611E+01 0.705E+01 0.266E+04   -.297E+01 -.693E+01 -.266E+04   -.137E-01 -.261E-02 -.127E+01   -.311E+01 -.161E+00 0.198E+01
[...]
   -.806E+02 -.245E+02 -.306E+03   0.852E+02 0.274E+02 0.308E+03   -.445E+01 -.294E+01 -.209E+01   -.158E+00 -.660E-01 -.173E+00
   -.731E+02 0.248E+02 -.308E+03   0.783E+02 -.270E+02 0.309E+03   -.507E+01 0.227E+01 -.143E+01   -.779E-01 -.165E-01 -.265E+00
   0.349E+02 0.275E+02 -.270E+03   -.384E+02 -.288E+02 0.274E+03   0.340E+01 0.128E+01 -.435E+01   0.571E-01 0.586E-01 -.253E+00
   -.563E+02 0.482E+02 -.267E+03   0.611E+02 -.511E+02 0.268E+03   -.476E+01 0.280E+01 -.750E+00   -.170E-01 0.706E-01 -.257E+00
   -.598E+02 -.571E+02 -.227E+03   0.658E+02 0.586E+02 0.222E+03   -.590E+01 -.145E+01 0.497E+01   -.483E-01 -.796E-01 -.209E+00
   -.525E+02 -.367E+02 -.252E+03   0.558E+02 0.382E+02 0.248E+03   -.315E+01 -.137E+01 0.434E+01   -.156E+00 -.638E-01 -.183E+00
   0.211E+01 -.744E+02 -.280E+03   -.427E+01 0.793E+02 0.282E+03   0.227E+01 -.489E+01 -.211E+01   -.596E-01 -.995E-01 -.215E+00
   -.593E+02 0.463E+01 -.294E+03   0.625E+02 -.709E+01 0.298E+03   -.310E+01 0.257E+01 -.392E+01   -.114E+00 -.451E-01 -.212E+00
   0.312E+03 0.130E+02 -.181E+04   -.334E+03 0.937E+01 0.185E+04   0.227E+02 -.222E+02 -.326E+02   -.481E-01 -.222E+00 -.486E+00
   0.149E+03 0.252E+03 -.173E+04   -.187E+03 -.273E+03 0.174E+04   0.381E+02 0.202E+02 -.420E+01   -.591E-01 0.241E+00 -.183E+00
   0.285E+02 -.671E+02 -.155E+04   -.405E+02 0.965E+02 0.153E+04   0.117E+02 -.298E+02 0.180E+02   0.361E+00 0.383E+00 -.124E+01
   0.117E+03 -.336E+03 -.160E+04   -.139E+03 0.360E+03 0.157E+04   0.221E+02 -.245E+02 0.293E+02   0.753E+00 0.580E-01 -.109E+01
   -.281E+02 -.280E+03 -.157E+04   0.919E+01 0.310E+03 0.160E+04   0.188E+02 -.296E+02 -.264E+02   0.571E-01 -.255E+00 -.139E+01
   -.470E+02 -.233E+03 -.167E+04   0.116E+02 0.249E+03 0.168E+04   0.359E+02 -.157E+02 -.594E+01   -.472E+00 -.373E+00 -.130E+01
   -.106E+03 0.726E+02 -.276E+03   -.739E-12 -.122E-11 -.432E-10   0.105E+03 -.736E+02 -.434E+02   0.154E+01 0.104E+01 0.318E+03

 POSITION                                       TOTAL-FORCE (eV/Angst)
     -1.24362      2.15447      3.99899        -0.084513     -0.057664     -0.097923
     -2.48762      4.30914      3.99899         0.103916      0.019309     -0.110105
     -3.73162      6.46381      3.99899         0.037829      0.066400     -0.095416
     -4.97562      8.61848      3.99899        -0.069448     -0.060207     -0.057571
      1.24438      2.15447      3.99899         0.151885      0.162082      0.526406
      0.00038      4.30914      3.99899        -0.275780      0.113134     -0.219841
     -1.24362      6.46381      3.99899        -0.005696     -0.030031     -0.096764
     -2.48762      8.61848      3.99899        -0.128879     -0.321902     -0.134166
      3.73238      2.15447      3.99899         0.338374     -0.605422      0.758339
      2.48838      4.30914      3.99899        -0.335117      0.615019      0.342781
      1.24438      6.46381      3.99899        -0.201628      0.270309     -0.249592
      0.00038      8.61848      3.99899         0.204754     -0.282495     -0.314704
      6.22038      2.15447      3.99899         0.013184     -0.249400     -0.282644
      4.97638      4.30914      3.99899         0.113035     -0.023847      0.495233
      3.73238      6.46381      3.99899        -0.066929      0.180999     -0.052073
      2.48838      8.61848      3.99899        -0.110259     -0.062533     -0.156722
      8.70838      2.15447      3.99899        -0.043201     -0.332356      0.278576
      7.46438      4.30914      3.99899        -0.365055      0.194383     -0.063366
      6.22038      6.46381      3.99899         0.014953      0.117698      0.126260
      4.97638      8.61848      3.99899        -0.016253     -0.242346     -0.242190
     11.19638      2.15447      3.99899         0.431032     -0.590945      0.538465
      9.95238      4.30914      3.99899        -0.203408      0.530259      0.818604
      8.70838      6.46381      3.99899        -0.001592      0.434078     -0.257006
      7.46438      8.61848      3.99899         0.205927     -0.219949     -0.253962
     13.68438      2.15447      3.99899         0.302386     -0.116508     -0.243584
     12.44038      4.30914      3.99899        -0.132997      0.125371      0.583432
     11.19638      6.46381      3.99899         0.133969      0.347166     -0.436789
      9.95238      8.61848      3.99899         0.007199      0.008447     -0.043176
      1.24386      0.71806      2.00182         0.001419      0.059325     -0.021047
     -0.00014      2.87273      2.00182         0.072104     -0.003630     -0.052313
     -1.24414      5.02740      2.00182         0.047913     -0.041717     -0.055571
     -2.48814      7.18207      2.00182        -0.002082      0.043361     -0.036807
      3.73186      0.71806      2.00182        -0.019274      0.106093     -0.125619
      2.48786      2.87273      2.00182         0.092095      0.050365     -0.202403
      1.24386      5.02740      2.00182         0.066749     -0.057664     -0.151765
     -0.00014      7.18207      2.00182         0.018995     -0.007006     -0.043654
      6.21986      0.71806      2.00182         0.005406      0.069024     -0.062687
      4.97586      2.87273      2.00182        -0.057806      0.042702     -0.239745
      3.73186      5.02740      2.00182        -0.023821     -0.108196     -0.224700
      2.48786      7.18207      2.00182         0.019716     -0.035112     -0.058378
      8.70786      0.71806      2.00182        -0.012536      0.075364     -0.132017
      7.46386      2.87273      2.00182        -0.040978     -0.009211     -0.056170
      6.21986      5.02740      2.00182        -0.003997     -0.134414     -0.030803
      4.97586      7.18207      2.00182        -0.063850      0.046040     -0.014846
     11.19586      0.71806      2.00182        -0.011832      0.109135     -0.176227
      9.95186      2.87273      2.00182         0.089442     -0.015041     -0.321642
      8.70786      5.02740      2.00182         0.031527     -0.082759     -0.142248
      7.46386      7.18207      2.00182        -0.047540      0.003126     -0.019568
     13.68386      0.71806      2.00182        -0.032348      0.056771     -0.042299
     12.43986      2.87273      2.00182        -0.082263     -0.013116     -0.171970
     11.19586      5.02740      2.00182        -0.001764     -0.078914     -0.138390
      9.95186      7.18207      2.00182         0.038426     -0.027648     -0.040378
     16.17186      0.71806      2.00182         0.029612      0.015537     -0.017920
     14.92786      2.87273      2.00182        -0.062280      0.005572     -0.030025
     13.68386      5.02740      2.00182        -0.101881     -0.053942      0.026041
     12.43986      7.18207      2.00182         0.009623     -0.036166     -0.070099
     -0.00001      1.43645      0.00000         0.010548      0.030092      0.120900
     -1.24401      3.59113      0.00000        -0.040982      0.033727      0.053477
     -2.48801      5.74580      0.00000         0.014434      0.017124      0.099708
     -3.73201      7.90047      0.00000         0.013309     -0.043765      0.072613
[...]
     10.66912      0.66604      6.27980        -0.000869     -0.040230      0.015372
     12.42380      4.56708      6.44910        -0.013949     -0.000352      0.018499
     12.67200      2.12589      6.26760        -0.021465     -0.015280      0.008489
      6.94358      4.07748      9.30563        -0.002964     -0.003368      0.014109
      8.56140      3.77372      8.60564         0.007526     -0.004919      0.001430
      8.59314      5.89699      7.88081         0.009594     -0.006523     -0.021679
     11.73554      6.84249      6.27267         0.025698      0.007712      0.005606
     10.66747      7.50411      7.56046         0.011453     -0.030716     -0.012103
     11.71201      6.07260      7.91892        -0.010133      0.007088     -0.007591
      0.80625      2.21905      6.76052        -0.046001     -0.004435      0.035614
      2.96566      0.64709      6.60401         0.004810     -0.085582      0.035593
      7.84405      4.32441      6.07523        -0.003478      0.026294      0.006984
      5.75064      5.99957      6.69853        -0.021006      0.053857     -0.025320
      7.84904      5.74163      8.51396        -0.023392      0.021820      0.046192
      9.99379      5.76818      6.75780         0.001459      0.033111      0.058555
    total drift:                                0.003985      0.000477     -1.390661

  FREE ENERGIE OF THE ION-ELECTRON SYSTEM (eV)
  free  energy   TOTEN  =      -695.91798873 eV

  energy  without entropy=     -695.84859675  energy(sigma->0) =     -695.88329274

[...]

  free energy =  -0.687068579398E+03  energy without entropy=  -0.686997234096E+03

[...]

 d Force = 0.1027768E+00[ 0.949E-01, 0.111E+00]  d Energy = 0.2633325E+01-0.253E+01
 d Force = 0.3816706E+02[ 0.381E+02, 0.383E+02]  d Ewald  = 0.3816683E+02 0.238E-03

 Steepest descent step on ions:
 trial-energy change:   -2.633325  1 .order   -0.102777   -0.110635   -0.094918
  (g-gl).g = 0.111E+00      g.g   = 0.111E+00  gl.gl    = 0.000E+00
 g(Force)  = 0.111E+00   g(Stress)= 0.000E+00 ortho     = 0.000E+00
 gamma     =   0.00000
 trial     =   1.00000
 opt step  =   4.00000  (harmonic =   7.03928) maximal distance =0.04738998
 next E    =  -696.307385   (d E  =  -0.38940)

[...]

 d Force = 0.3063643E-01[-0.235E+00, 0.297E+00]  d Energy = 0.2851734E-01 0.212E-02
 d Force = 0.2217629E+03[ 0.219E+03, 0.225E+03]  d Ewald  = 0.2217236E+03 0.392E-01

[...]

 d Force = 0.5300535E-01[ 0.187E-02, 0.104E+00]  d Energy = 0.5295501E-01 0.503E-04
 d Force =-0.9730220E+02[-0.979E+02,-0.967E+02]  d Ewald  =-0.9729904E+02-0.316E-02

[...]

 d Force = 0.3530196E-01[-0.748E-01, 0.145E+00]  d Energy = 0.3654063E-01-0.124E-02
 d Force =-0.3196104E+02[-0.319E+02,-0.320E+02]  d Ewald  =-0.3195605E+02-0.500E-02

 Conjugate gradient step on ions:
 trial-energy change:   -0.036541  1 .order   -0.035302   -0.145392    0.074789
  (g-gl).g = 0.799E-01      g.g   = 0.792E-01  gl.gl    = 0.111E+00
 g(Force)  = 0.792E-01   g(Stress)= 0.000E+00 ortho     =-0.705E-03
 gamma     =   0.72198
 trial     =   1.84832
 opt step  =   1.23434  (harmonic =   1.22050) maximal distance =0.01262473
 next E    =  -698.898250   (d E  =  -0.04892)

[...]

 Conjugate gradient step on ions:
 trial-energy change:   -0.027596  1 .order   -0.027466   -0.038598   -0.016333
  (g-gl).g = 0.307E-01      g.g   = 0.330E-01  gl.gl    = 0.288E-01
 g(Force)  = 0.330E-01   g(Stress)= 0.000E+00 ortho     = 0.224E-02
 gamma     =   1.06675
 trial     =   1.09049
 opt step  =   1.84556  (harmonic =   1.89046) maximal distance =0.01703101
 next E    =  -698.990674   (d E  =  -0.03329)

[...]

 d Force = 0.1740646E-02[-0.416E-02, 0.764E-02]  d Energy = 0.1696525E-02 0.441E-04
 d Force =-0.4811689E+02[-0.480E+02,-0.482E+02]  d Ewald  =-0.4811686E+02-0.318E-04

[...]

 d Force = 0.2602989E-04[ 0.756E-05, 0.445E-04]  d Energy = 0.5153312E-04-0.255E-04
 d Force =-0.1119696E+02[-0.112E+02,-0.112E+02]  d Ewald  =-0.1119696E+02 0.728E-07

[...]

 Conjugate gradient step on ions:
 trial-energy change:   -0.000275  1 .order   -0.000290   -0.000498   -0.000082
  (g-gl).g = 0.248E-03      g.g   = 0.247E-03  gl.gl    = 0.388E-03
 g(Force)  = 0.247E-03   g(Stress)= 0.000E+00 ortho     = 0.639E-05
 gamma     =   0.63911
 trial     =   1.98037
 opt step  =   2.37193  (harmonic =   2.37193) maximal distance =0.00211590
 next E    =  -699.037904   (d E  =  -0.00030)

[...]

 d Force = 0.1194755E-04[-0.429E-05, 0.282E-04]  d Energy = 0.3034196E-06 0.116E-04
 d Force = 0.6659804E+01[ 0.666E+01, 0.666E+01]  d Ewald  = 0.6659803E+01 0.536E-06

[...]

 eigenvalue-minimisations  : 11681
 total energy-change (2. order) : 0.8169669E-04  (-0.4345315E-05)
 number of electron     964.0002130 magnetization      55.9879818
 augmentation part      524.7742746 magnetization      52.5544100

[...]

 eigenvalues of (default mixing * dielectric matrix)
  average eigenvalue GAMMA=   0.2263
  0.8660  0.1950  0.1100  0.0758  0.0527  0.0585

[...]

--------------------------------------- Iteration     50(   8)  ---------------------------------------

 eigenvalue-minimisations  :  8199
 total energy-change (2. order) :-0.3185050E-05  (-0.1562636E-05)
 number of electron     964.0002130 magnetization      55.9879818
 augmentation part      524.7742746 magnetization      52.5544100

 DIPCOR: dipole corrections for dipol
 direction  3 min pos   151,
 dipolmoment           0.000000      0.000000     -1.287113 electrons x Angstroem
 Tr[quadrupol]    -33560.358433

 energy correction for charged system         0.000000 eV
 dipol+quadrupol energy correction           -0.047598 eV
 added-field ion interaction        -69.837091 eV  (added to PSCEN)

  free energy =  -0.689458261295E+03  energy without entropy=  -0.689387504249E+03

------------------------ aborting loop because EDIFF is reached ----------------------------------------

  Number of pair interactions contributing to vdW energy:  674995
  Edisp (eV):   -9.58030

  FORCE on cell =-STRESS in cart. coord.  units (eV):
  Direction    XX          YY          ZZ          XY          YZ          ZX
  Alpha Z  1467.69984  1467.69984  1467.69984
  Ewald  387767.62258386742.34345************   406.87815   360.77111    32.89869
  Hartree411776.64360410847.16846************   259.29795   331.50499    52.33645
  E(xc)   -5106.66265 -5106.69899 -5121.03285     0.52194    -0.00182    -0.20298
  Local  ************************814581.25911  -636.46712  -696.19817   -99.63343
  n-local  -955.00468  -946.27098 -1010.96839    -2.29709    -1.42556    -0.92316
  augment 14809.52463 14808.42164 14887.03318    -4.64242     0.18848     1.30852
  Kinetic  8524.84556  8503.13507  8718.73205   -27.16469     5.34708    14.14674
  Fock        0.00000     0.00000     0.00000     0.00000     0.00000     0.00000
  vdW       -11.44310   -11.39565    -8.87019    -0.03579    -0.05057    -0.08217
  Total     -45.12319   -39.20114    -3.92123    -3.90907     0.13552    -0.15132
  in kB     -22.83263   -19.83603    -1.98417    -1.97801     0.06858    -0.07657

  FREE ENERGIE OF THE ION-ELECTRON SYSTEM (eV)
  free  energy   TOTEN  =      -699.03856217 eV

  energy  without entropy=     -698.96780512  energy(sigma->0) =     -699.00318364

 d Force = 0.1973532E-03[ 0.145E-03, 0.250E-03]  d Energy = 0.1781363E-03 0.192E-04
 d Force = 0.1160821E+02[ 0.116E+02, 0.116E+02]  d Ewald  = 0.1160821E+02-0.255E-07

 Conjugate gradient step on ions:
 trial-energy change:   -0.000178  1 .order   -0.000197   -0.000250   -0.000145
  (g-gl).g = 0.147E-03      g.g   = 0.168E-03  gl.gl    = 0.253E-03
 g(Force)  = 0.168E-03   g(Stress)= 0.000E+00 ortho     =-0.904E-05
 gamma     =   0.58333
 trial     =   1.53199
 opt step  =   3.64534  (harmonic =   3.64534) maximal distance =0.00310942
 next E    =  -699.038681   (d E  =  -0.00030)

 reached required accuracy - stopping structural energy minimisation