 vasp.5.4.4.18Apr17-6-g9f103f2a35 (build Jun 30 2017 19:19:18) complex

 executed on         MareNostrum4 date 2022.12.13  11:21:53

 INCAR:
 POTCAR:    PAW_PBE Ru 04Feb2005
 POTCAR:    PAW_PBE H 15Jun2001
 POTCAR:    PAW_PBE C 08Apr2002

 POTCAR:    PAW_PBE Ru 04Feb2005

 POTCAR:    PAW_PBE H 15Jun2001

 POTCAR:    PAW_PBE C 08Apr2002

 Optimization of the real space projectors (new method)

 maximal supplied QI-value         = 13.98
 optimisation between [QCUT,QGAM] = [ 10.77, 21.68] = [ 32.47,131.56] Ry
 Optimized for a Real-space Cutoff    1.51 Angstroem

   l    n(q)    QCUT    max X(q) W(low)/X(q) W(high)/X(q)  e(spline)
   2      9    10.768    61.733    0.26E-03    0.97E-04    0.28E-06
   2      9    10.768    59.886    0.26E-03    0.10E-03    0.29E-06
   0     10    10.768    23.358    0.12E-03    0.28E-03    0.38E-06
   0     10    10.768    11.320    0.93E-04    0.23E-03    0.31E-06
   1      9    10.768    14.765    0.48E-03    0.21E-03    0.19E-06
   1      9    10.768     8.283    0.36E-03    0.16E-03    0.15E-06
 Optimization of the real space projectors (new method)

[...]

   l    n(q)    QCUT    max X(q) W(low)/X(q) W(high)/X(q)  e(spline)
   0      8    10.603    19.460    0.37E-03    0.59E-03    0.23E-06
   0      8    10.603    12.209    0.35E-03    0.56E-03    0.22E-06
   1      7    10.603     4.655    0.70E-04    0.28E-03    0.29E-06
 Optimization of the real space projectors (new method)

 maximal supplied QI-value         = 25.13
 optimisation between [QCUT,QGAM] = [ 10.81, 21.61] = [ 32.71,130.83] Ry
 Optimized for a Real-space Cutoff    1.23 Angstroem

   l    n(q)    QCUT    max X(q) W(low)/X(q) W(high)/X(q)  e(spline)
   0      8    10.807   115.676    0.36E-03    0.72E-03    0.24E-06
   0      8    10.807    87.132    0.35E-03    0.71E-03    0.24E-06
   1      7    10.807     4.429    0.19E-03    0.39E-03    0.11E-06
   1      7    10.807     2.733    0.14E-03    0.28E-03    0.13E-06
  PAW_PBE Ru 04Feb2005                  :
  PAW_PBE H 15Jun2001                   :
  PAW_PBE C 08Apr2002                   :

 POSCAR: Ru  H  C
  positions in cartesian coordinates
 exchange correlation table for  LEXCH =        8
   RHO(1)=    0.500       N(1)  =     2000
   RHO(2)=  100.500       N(2)  =     4000

 ion  position               nearest neighbor table
   1  0.000  0.083  0.000-  14 2.65  13 2.65 114 2.65  57 2.71   2 2.71 101 2.71 102 2.71   3 2.71
                           107 2.71
   2  0.167  0.000  0.000-  69 2.65  14 2.65  16 2.65  57 2.71   1 2.71  60 2.71   4 2.71   3 2.71
                            58 2.71
   3  0.083  0.167  0.000-  19 2.65  15 2.65  14 2.65   7 2.71 107 2.71   1 2.71   8 2.71   2 2.71
                             4 2.71
   4  0.250  0.083  0.000-  17 2.65  16 2.65  15 2.65  60 2.71   5 2.71   6 2.71   2 2.71   8 2.71
                             3 2.71
   5  0.417  0.000  0.000-  72 2.65  17 2.65 109 2.65 153 2.71   4 2.71  97 2.71  60 2.71 151 2.71
                             6 2.71
   6  0.333  0.167  0.000-  22 2.65  18 2.65  17 2.65  10 2.71   8 2.71   4 2.71  11 2.71   5 2.71
                            97 2.71
   7  1.000  0.333  0.000-  19 2.65 120 2.65  20 2.65   3 2.71 107 2.71 108 2.71   8 2.71 149 2.71
                             9 2.71
   8  0.167  0.250  0.000-  22 2.65  15 2.65  20 2.65  10 2.71   6 2.71   3 2.71   7 2.71   4 2.71
                             9 2.71
   9  0.083  0.417  0.000-  21 2.65  61 2.65  20 2.65  49 2.71  50 2.71 149 2.71  10 2.71   8 2.71
                             7 2.71
  10  0.250  0.333  0.000-  22 2.65  23 2.65  21 2.65   6 2.71   8 2.71   9 2.71  11 2.71  50 2.71
                            12 2.71
  11  0.417  0.250  0.000- 115 2.65  18 2.65  23 2.65 103 2.71  99 2.71   6 2.71  10 2.71  97 2.71
                            12 2.71
  12  0.333  0.417  0.000-  24 2.65  64 2.65  23 2.65  52 2.71  53 2.71 103 2.71  50 2.71  11 2.71
                            10 2.71
  13  0.000  0.000  0.107-  25 2.64  81 2.64 125 2.64 101 2.65   1 2.65  57 2.65  14 2.71 168 2.71
                            69 2.71 113 2.71  68 2.71 114 2.71
  14  0.083  0.083  0.107-  27 2.64  25 2.64  26 2.64   1 2.65   2 2.65   3 2.65  69 2.71  13 2.71
                           114 2.71  16 2.71  19 2.71  15 2.71
  15  0.167  0.167  0.107-  28 2.64  32 2.64  27 2.64   8 2.65   3 2.65   4 2.65  20 2.71  22 2.71
                            17 2.71  19 2.71  16 2.71  14 2.71
  16  0.250  0.000  0.107-  28 2.64  84 2.64  26 2.64  60 2.65   4 2.65   2 2.65  17 2.71  72 2.71
                            69 2.71  14 2.71  15 2.71  71 2.71
  17  0.333  0.083  0.107-  29 2.64  28 2.64  30 2.64   4 2.65   5 2.65   6 2.65  72 2.71  16 2.71
                            15 2.71 109 2.71  22 2.71  18 2.71
  18  0.417  0.167  0.107- 121 2.64  35 2.64  30 2.64  11 2.65   6 2.65  97 2.65  23 2.71 115 2.71
                           110 2.71  22 2.71 109 2.71  17 2.71
  19  1.000  0.250  0.107-  31 2.64  27 2.64 131 2.64 107 2.65   7 2.65   3 2.65 114 2.71 119 2.71
                            20 2.71  15 2.71 120 2.71  14 2.71
  20  0.083  0.333  0.107-  33 2.64  31 2.64  32 2.64   8 2.65   7 2.65   9 2.65  15 2.71  22 2.71
                           120 2.71  21 2.71  19 2.71  61 2.71
  21  0.167  0.417  0.107-  33 2.64  74 2.64  34 2.64   9 2.65  50 2.65  10 2.65  62 2.71  61 2.71
                            20 2.71  64 2.71  22 2.71  23 2.71
  22  0.250  0.250  0.107-  30 2.64  32 2.64  34 2.64   8 2.65  10 2.65   6 2.65  15 2.71  20 2.71
                            23 2.71  18 2.71  17 2.71  21 2.71
  23  0.333  0.333  0.107-  35 2.64  36 2.64  34 2.64  11 2.65  10 2.65  12 2.65  18 2.71 115 2.71
                            24 2.71  22 2.71  64 2.71  21 2.71
  24  0.417  0.417  0.107- 127 2.64  77 2.64  36 2.65  12 2.65  53 2.65 103 2.65  65 2.71  64 2.71
                            23 2.71 157 2.71 115 2.71 116 2.71
  25  1.000  0.083  0.214- 138 2.59  38 2.59  37 2.59 114 2.64  13 2.64  14 2.64 126 2.71 131 2.71
                            27 2.71  26 2.71 125 2.71  81 2.71
  26  0.167  1.000  0.214-  93 2.59  38 2.59  40 2.59  69 2.64  14 2.64  16 2.64  81 2.71  82 2.71
                            84 2.71  27 2.71  25 2.71  28 2.71
  27  0.083  0.167  0.214-  39 2.58  43 2.59  38 2.59  14 2.64  15 2.64  19 2.64  32 2.71  25 2.71
                            28 2.71  26 2.71 131 2.71  31 2.71
  28  0.250  0.083  0.213-  39 2.58  41 2.59  40 2.59  16 2.64  17 2.64  15 2.64  29 2.71  84 2.71
                            32 2.71  27 2.71  30 2.71  26 2.71
  29  0.417  0.000  0.213-  41 2.58 133 2.59  96 2.59  17 2.64  72 2.64 109 2.64  28 2.71  84 2.71
                            30 2.71 175 2.71 121 2.71 177 2.72
  30  0.333  0.167  0.214-  42 2.59  41 2.59  46 2.59  18 2.64  17 2.64  22 2.64 121 2.71  29 2.71
                            34 2.71  35 2.71  28 2.71  32 2.71
  31  0.000  0.333  0.213-  44 2.57 144 2.59  43 2.59  20 2.64 120 2.64  19 2.64  32 2.71  33 2.71
                            27 2.71 173 2.71 131 2.72 132 2.72
  32  0.167  0.250  0.214-  44 2.59  46 2.59  39 2.59  15 2.64  20 2.64  22 2.64  31 2.71  33 2.71
                            27 2.71  28 2.71  34 2.71  30 2.71
  33  0.083  0.417  0.213-  44 2.58  45 2.59  85 2.59  21 2.64  20 2.64  61 2.64  34 2.71  31 2.71
                            32 2.71  74 2.71  73 2.72 173 2.72
  34  0.250  0.333  0.214-  47 2.59  45 2.59  46 2.60  22 2.64  23 2.64  21 2.64  33 2.71  36 2.71
                            30 2.71  35 2.71  74 2.71  32 2.71
  35  0.417  0.250  0.213-  42 2.59  47 2.59 139 2.59  18 2.64 115 2.64  23 2.64 121 2.71 123 2.71
                            30 2.71  36 2.71  34 2.71 127 2.71
  36  0.333  0.417  0.214-  48 2.59  88 2.59  47 2.59  23 2.64  64 2.64  24 2.65  76 2.71  74 2.71
                            34 2.71  77 2.71  35 2.71 127 2.71
  37  0.000  1.000  0.316- 125 2.59  81 2.59  25 2.59 192 2.71  92 2.71  38 2.71  93 2.71 137 2.71
                           138 2.71
  38  0.083  0.083  0.316-  25 2.59  27 2.59  26 2.59  39 2.70  93 2.71 138 2.71  37 2.71  40 2.71
                            43 2.71
  39  0.166  0.166  0.316-  27 2.58  28 2.58  32 2.59  38 2.70  40 2.70  43 2.71  46 2.71  41 2.72
                            44 2.72
  40  0.250  0.000  0.317-  84 2.59  26 2.59  28 2.59  39 2.70  41 2.71  38 2.71  93 2.71  95 2.71
                            96 2.71
  41  0.334  0.083  0.316-  29 2.58  30 2.59  28 2.59  46 2.70 133 2.71  96 2.71  40 2.71  42 2.71
                            39 2.72
  42  0.417  0.166  0.316- 121 2.58  30 2.59  35 2.59 133 2.70 134 2.70 139 2.71  41 2.71  47 2.72
                            46 2.72
  43  0.000  0.250  0.317-  27 2.59 131 2.59  31 2.59  44 2.70  39 2.71 143 2.71  38 2.71 138 2.71
                           144 2.71
  44  0.083  0.334  0.316-  31 2.57  33 2.58  32 2.59 144 2.70  43 2.70  85 2.71  45 2.72  39 2.72
                            46 2.72
  45  0.166  0.417  0.317-  74 2.58  33 2.59  34 2.59  85 2.71  86 2.71  88 2.72  44 2.72  47 2.73
                            46 2.73
  46  0.250  0.249  0.317-  32 2.59  30 2.59  34 2.60  41 2.70  39 2.71  42 2.72  44 2.72  47 2.73
                            45 2.73
  47  0.334  0.333  0.317-  35 2.59  36 2.59  34 2.59  48 2.72 139 2.72  42 2.72  88 2.72  46 2.73
                            45 2.73
  48  0.417  0.416  0.316-  77 2.58 127 2.58  36 2.59 140 2.71 181 2.71  89 2.72  47 2.72 139 2.72
                            88 2.72
  49  0.000  0.583  0.000-  62 2.65  61 2.65 162 2.65   9 2.71  50 2.71 149 2.71 150 2.71  51 2.71
                           155 2.71
  50  0.167  0.500  0.000-  21 2.65  62 2.65  64 2.65   9 2.71  49 2.71  52 2.71  12 2.71  51 2.71
                            10 2.71
  51  0.083  0.667  0.000-  67 2.65  63 2.65  62 2.65  55 2.71 155 2.71  49 2.71  56 2.71  50 2.71
                            52 2.71
  52  0.250  0.583  0.000-  65 2.65  64 2.65  63 2.65  12 2.71  53 2.71  54 2.71  50 2.71  56 2.71
                            51 2.71
  53  0.417  0.500  0.000-  24 2.65  65 2.65 157 2.65 145 2.71 105 2.71  12 2.71  52 2.71 103 2.71
                            54 2.71
  54  0.333  0.667  0.000-  70 2.65  66 2.65  65 2.65  58 2.71  56 2.71  59 2.71 145 2.71  52 2.71
                            53 2.71
  55  1.000  0.833  0.000-  67 2.65 168 2.65  68 2.65  51 2.71 155 2.71 156 2.71  56 2.71 101 2.71
                            57 2.71
  56  0.167  0.750  0.000-  70 2.65  63 2.65  68 2.65  54 2.71  58 2.71  51 2.71  55 2.71  52 2.71
                            57 2.71
  57  0.083  0.917  0.000-  69 2.65  13 2.65  68 2.65   1 2.71   2 2.71 101 2.71  58 2.71  56 2.71
                            55 2.71
  58  0.250  0.833  0.000-  70 2.65  71 2.65  69 2.65  54 2.71  59 2.71  56 2.71  57 2.71  60 2.71
                             2 2.71
  59  0.417  0.750  0.000-  66 2.65  71 2.65 163 2.65  58 2.71  54 2.71 151 2.71 147 2.71 145 2.71
                            60 2.71
  60  0.333  0.917  0.000-  16 2.65  71 2.65  72 2.65   4 2.71   2 2.71  58 2.71   5 2.71  59 2.71
                           151 2.71
  61  0.000  0.500  0.107-  73 2.64  33 2.64 173 2.64 149 2.65  49 2.65   9 2.65  62 2.71 120 2.71
[...]
   0.383E+01 -.101E+02 0.157E+04   -.383E+01 0.101E+02 -.156E+04   0.886E-02 -.208E-01 -.388E+01   0.228E-03 -.192E-04 -.250E-02
   0.370E+01 -.116E+02 0.157E+04   -.370E+01 0.116E+02 -.156E+04   0.557E-02 0.200E-01 -.391E+01   -.373E-03 -.572E-04 -.351E-02
   0.723E+01 -.144E+02 0.157E+04   -.724E+01 0.144E+02 -.156E+04   0.126E-01 -.497E-02 -.388E+01   0.334E-03 0.654E-03 -.341E-02
   0.556E+01 -.107E+02 0.157E+04   -.556E+01 0.107E+02 -.156E+04   0.235E-02 -.907E-02 -.391E+01   0.394E-03 -.386E-03 -.376E-02
   0.590E+01 -.143E+02 0.157E+04   -.590E+01 0.143E+02 -.156E+04   -.733E-02 -.122E-01 -.388E+01   0.176E-03 0.290E-03 -.345E-02
   0.146E+00 -.112E+02 0.157E+04   -.150E+00 0.112E+02 -.156E+04   0.127E-01 -.109E-01 -.388E+01   -.401E-03 0.681E-03 -.257E-02
   0.330E+01 -.104E+02 0.157E+04   -.331E+01 0.104E+02 -.156E+04   0.137E-02 0.805E-02 -.388E+01   -.472E-03 -.556E-03 -.347E-02
[...]
   -.714E+02 -.958E+01 -.161E+03   0.769E+02 0.922E+01 0.161E+03   -.548E+01 0.367E+00 0.600E+00   0.366E-04 0.816E-04 0.762E-03
   -.645E+01 -.520E+02 -.174E+03   0.546E+01 0.551E+02 0.178E+03   0.105E+01 -.313E+01 -.434E+01   0.726E-04 0.884E-04 0.855E-03
   0.108E+03 0.106E+03 -.644E+03   -.108E+03 -.106E+03 0.644E+03   0.244E+00 -.257E+00 -.631E-01   -.299E-03 -.296E-04 0.299E-02
   0.109E+03 -.461E+02 -.638E+03   -.109E+03 0.463E+02 0.638E+03   -.260E+00 -.233E+00 -.275E+00   -.148E-03 0.563E-04 0.275E-02
   0.786E+00 0.871E+02 -.625E+03   -.913E+00 -.869E+02 0.625E+03   0.938E-01 -.450E+00 -.264E+00   0.137E-04 0.695E-04 0.258E-02
   0.581E+02 -.789E+02 -.616E+03   -.579E+02 0.790E+02 0.616E+03   -.187E+00 -.126E+00 -.140E+00   0.179E-04 0.129E-04 0.235E-02
   -.237E+02 0.820E+02 -.600E+03   0.237E+02 -.817E+02 0.600E+03   -.509E-01 -.294E+00 -.872E-01   0.648E-04 -.369E-04 0.211E-02
   0.382E+02 -.833E+02 -.596E+03   -.381E+02 0.832E+02 0.596E+03   -.102E+00 -.154E-01 -.523E-01   0.163E-04 -.113E-03 0.211E-02
   -.395E+02 0.856E+02 -.595E+03   0.394E+02 -.855E+02 0.595E+03   0.104E+00 0.633E-02 -.855E-01   -.310E-04 -.785E-04 0.206E-02
   0.234E+02 -.797E+02 -.601E+03   -.234E+02 0.793E+02 0.601E+03   0.503E-01 0.300E+00 -.688E-01   -.325E-04 -.641E-04 0.217E-02
   -.607E+02 0.808E+02 -.615E+03   0.605E+02 -.809E+02 0.616E+03   0.202E+00 0.134E+00 -.184E+00   -.901E-04 0.288E-04 0.240E-02
   -.234E+00 -.839E+02 -.625E+03   0.339E+00 0.837E+02 0.625E+03   -.122E+00 0.481E+00 -.256E+00   -.326E-04 0.154E-03 0.251E-02
   -.111E+03 0.445E+02 -.639E+03   0.111E+03 -.447E+02 0.639E+03   0.274E+00 0.266E+00 -.333E+00   0.186E-04 0.238E-03 0.284E-02
   -.105E+03 -.109E+03 -.646E+03   0.105E+03 0.109E+03 0.646E+03   -.314E+00 0.289E+00 -.796E-01   0.999E-04 0.309E-03 0.287E-02
   -.149E+00 0.142E+00 0.349E+01   -.239E-11 -.101E-11 -.796E-12   0.104E+00 -.122E+00 -.208E+01   -.579E-03 0.768E-03 -.178E+01

 POSITION                                       TOTAL-FORCE (eV/Angst)
      0.78291      1.35605      0.00000         0.003743      0.009668      0.710611
      3.13166      0.00000      0.00000        -0.018243     -0.000723      0.719146
      3.13166      2.71210      0.00000        -0.001853      0.002824      0.720735
      5.48040      1.35605      0.00000        -0.003855     -0.008213      0.724102
      7.82915      0.00000      0.00000        -0.019795     -0.000820      0.719027
      7.82915      2.71210      0.00000         0.007995     -0.012123      0.719780
     21.92161      5.42419      0.00000         0.011795      0.017288      0.725878
      5.48040      4.06814      0.00000         0.010973     -0.000845      0.724197
      5.48040      6.78024      0.00000         0.006466     -0.012753      0.720412
      7.82915      5.42419      0.00000        -0.002743     -0.008047      0.728928
     10.17789      4.06814      0.00000         0.005869     -0.002483      0.725188
     10.17789      6.78024      0.00000        -0.006572      0.011490      0.727912
      0.00000      0.00000      2.14396        -0.001062     -0.004357     -0.725131
      2.34874      1.35605      2.14396        -0.009987     -0.009200     -0.722592
      4.69749      2.71210      2.14396         0.000207      0.009519     -0.717956
      4.69749      0.00000      2.14396        -0.005068     -0.009634     -0.731233
      7.04623      1.35605      2.14396         0.015631     -0.004726     -0.733857
      9.39498      2.71210      2.14396        -0.002598     -0.010012     -0.740773
     21.13869      4.06814      2.14396        -0.011007      0.003645     -0.733554
      4.69749      5.42419      2.14396         0.004541      0.008822     -0.742765
      7.04623      6.78024      2.14396         0.005827     -0.005615     -0.719046
      7.04623      4.06814      2.14396         0.003125      0.015274     -0.720180
      9.39498      5.42419      2.14396        -0.009248      0.012211     -0.692405
     11.74372      6.78024      2.14396        -0.010421      0.010434     -0.716525
     19.57233      1.35665      4.27008        -0.000619     -0.002014     -0.001031
     12.52543     16.27149      4.27044         0.006199      0.002205      0.002915
      3.13128      2.71123      4.27106        -0.024113     -0.003091     -0.020106
      5.48007      1.35536      4.26885        -0.006087     -0.007905      0.021399
      7.82737      0.00052      4.26956         0.005595     -0.022633     -0.022776
      7.82956      2.71148      4.27100        -0.023519      0.027248      0.046901
      3.13340      5.42428      4.26980        -0.003793     -0.011496     -0.001973
      5.47908      4.06738      4.27137         0.007917     -0.009067     -0.013344
      5.48157      6.77832      4.26900         0.010041     -0.003923     -0.002031
      7.82890      5.42293      4.27489        -0.017804      0.006255      0.011744
     10.17813      4.06734      4.26987        -0.013073      0.023240      0.056944
     10.17623      6.77962      4.27477         0.006099      0.020623     -0.022932
      9.39459     16.27088      6.32811        -0.003213      0.001190     -0.001824
      2.34719      1.35485      6.32945        -0.000302      0.001881      0.000786
      4.68854      2.70369      6.32725         0.048155      0.038506      0.034488
      4.69672      0.00137      6.33268         0.002364     -0.008289     -0.007388
      7.04694      1.35096      6.32767        -0.004845      0.036026      0.016578
      9.40070      2.70073      6.32590        -0.042624      0.066921      0.033611
      2.34878      4.06693      6.33009         0.002281     -0.014660      0.004736
      4.68528      5.42728      6.32362         0.018374     -0.037842      0.025067
      7.04003      6.78795      6.33224         0.000072      0.044070     -0.148310
      7.03780      4.05488      6.33709         0.058142     -0.004029     -0.068074
      9.39781      5.41785      6.33683         0.022536     -0.000169     -0.031863
     11.74847      6.77743      6.32756         0.003294      0.016678      0.085780
      5.48040      9.49233      0.00000         0.010111      0.010543      0.715627
      7.82915      8.13629      0.00000        -0.008155      0.001487      0.723649
      7.82915     10.84838      0.00000        -0.004478      0.001564      0.729277
     10.17789      9.49233      0.00000        -0.001488     -0.010112      0.733393
     12.52663      8.13629      0.00000        -0.008841      0.002798      0.725824
     12.52663     10.84838      0.00000         0.003891     -0.013753      0.728619
     26.61910     13.56048      0.00000         0.008022      0.010100      0.718413
     10.17789     12.20443      0.00000         0.011601     -0.006848      0.731064
     10.17789     14.91653      0.00000         0.007067     -0.014408      0.713704
     12.52663     13.56048      0.00000        -0.004070     -0.009145      0.730967
     14.87538     12.20443      0.00000         0.008855      0.002813      0.723489
     14.87538     14.91653      0.00000        -0.001969      0.005249      0.725277
[...]
     18.66365     12.77429      8.70715         0.043254     -0.120849      0.096935
     20.13978     12.11685      9.46309         0.006571     -0.012718      0.018552
     18.83184     12.82084     10.46503         0.035863     -0.040650      0.046126
      6.78566      5.61292      9.60007        -0.003493     -0.255013      0.066769
      7.53032      6.93808      9.66681        -0.024513      0.044091     -0.105192
      9.04050      6.75574      9.65979        -0.006099     -0.281208      0.056969
      9.84524      8.02816      9.87568         0.043364     -0.048442     -0.108004
     11.34495      7.75879      9.87312        -0.013228     -0.037111      0.118838
     12.20876      9.00298     10.03314         0.025531     -0.116598     -0.060625
     13.70362      8.68886      9.99986        -0.028656      0.124737     -0.045582
     14.56172      9.94215      9.89043         0.002235      0.021759      0.093822
     16.06448      9.68666      9.86929        -0.022903      0.055256     -0.112120
     16.84447     10.97708      9.66672        -0.045940      0.289939      0.025250
     18.35969     10.84445      9.67278         0.018603      0.008667     -0.109666
     19.04943     12.19855      9.58187        -0.029665      0.258367      0.073028
    total drift:                               -0.045205      0.020351     -0.371818

  FREE ENERGIE OF THE ION-ELECTRON SYSTEM (eV)
  free  energy   TOTEN  =     -1898.99558248 eV

  energy  without entropy=    -1898.86399761  energy(sigma->0) =    -1898.92979005

[...]

  free energy =  -0.188058347872E+04  energy without entropy=  -0.188045195953E+04

[...]

 d Force = 0.9843994E-02[ 0.646E-02, 0.132E-01]  d Energy = 0.9897364E-02-0.534E-04
 d Force =-0.6455280E+01[-0.646E+01,-0.645E+01]  d Ewald  =-0.6455279E+01-0.939E-06

 Steepest descent step on ions:
 trial-energy change:   -0.009897  1 .order   -0.009844   -0.013227   -0.006461
  (g-gl).g = 0.132E-01      g.g   = 0.132E-01  gl.gl    = 0.000E+00
 g(Force)  = 0.132E-01   g(Stress)= 0.000E+00 ortho     = 0.000E+00
 gamma     =   0.00000
 trial     =   1.00000
 opt step  =   1.87695  (harmonic =   1.95484) maximal distance =0.00787609
 next E    = -1899.008349   (d E  =  -0.01277)

[...]

 Conjugate gradient step on ions:
 trial-energy change:   -0.007760  1 .order   -0.007777   -0.009664   -0.005889
  (g-gl).g = 0.729E-02      g.g   = 0.789E-02  gl.gl    = 0.132E-01
 g(Force)  = 0.789E-02   g(Stress)= 0.000E+00 ortho     = 0.599E-03
 gamma     =   0.55135
 trial     =   1.17539
 opt step  =   3.00896  (harmonic =   3.00896) maximal distance =0.00847642
 next E    = -1899.020979   (d E  =  -0.01237)

[...]

 d Force = 0.2606388E-02[ 0.215E-02, 0.307E-02]  d Energy = 0.2614073E-02-0.768E-05
 d Force = 0.1861172E+01[ 0.186E+01, 0.186E+01]  d Ewald  = 0.1861172E+01-0.107E-06

[...]

 d Force = 0.2374437E-02[-0.266E-03, 0.502E-02]  d Energy = 0.2415839E-02-0.414E-04
 d Force = 0.4334198E+01[ 0.432E+01, 0.434E+01]  d Ewald  = 0.4334197E+01 0.428E-06

[...]

 Conjugate gradient step on ions:
 trial-energy change:   -0.003300  1 .order   -0.003309   -0.003650   -0.002969
  (g-gl).g = 0.333E-02      g.g   = 0.321E-02  gl.gl    = 0.363E-02
 g(Force)  = 0.321E-02   g(Stress)= 0.000E+00 ortho     =-0.137E-03
 gamma     =   0.91617
 trial     =   1.18390
 opt step  =   4.73560  (harmonic =   6.34500) maximal distance =0.01612931
 next E    = -1899.046718   (d E  =  -0.00978)

[...]

 d Force =-0.3441488E-02[-0.182E-01, 0.113E-01]  d Energy =-0.3738270E-02 0.297E-03
 d Force = 0.1115028E+03[ 0.111E+03, 0.112E+03]  d Ewald  = 0.1115037E+03-0.947E-03

[...]

 d Force = 0.5476360E-02[-0.277E-03, 0.112E-01]  d Energy = 0.5820552E-02-0.344E-03
 d Force =-0.6869480E+02[-0.688E+02,-0.686E+02]  d Ewald  =-0.6869504E+02 0.239E-03

[...]

 d Force =-0.1574263E-02[-0.591E-02, 0.276E-02]  d Energy =-0.1446474E-02-0.128E-03
 d Force =-0.1138714E+02[-0.114E+02,-0.113E+02]  d Ewald  =-0.1138716E+02 0.155E-04

[...]

 d Force =-0.3302264E-05[-0.307E-03, 0.301E-03]  d Energy = 0.5037469E-04-0.537E-04
 d Force =-0.1212778E+02[-0.121E+02,-0.121E+02]  d Ewald  =-0.1212778E+02 0.537E-06

[...]

 d Force =-0.4361561E-04[-0.279E-03, 0.192E-03]  d Energy =-0.7536651E-05-0.361E-04
 d Force =-0.1037097E+02[-0.104E+02,-0.104E+02]  d Ewald  =-0.1037097E+02 0.523E-06

[...]

 d Force =-0.1117204E-04[-0.229E-03, 0.207E-03]  d Energy = 0.4200959E-04-0.532E-04
 d Force =-0.7637435E+01[-0.764E+01,-0.763E+01]  d Ewald  =-0.7637435E+01-0.344E-06

[...]

 d Force = 0.5863617E-04[-0.313E-05, 0.120E-03]  d Energy = 0.3279374E-04 0.258E-04
 d Force = 0.4015369E+01[ 0.401E+01, 0.402E+01]  d Ewald  = 0.4015369E+01-0.601E-07

[...]

 d Force = 0.3004717E-04[ 0.250E-05, 0.576E-04]  d Energy = 0.3033530E-05 0.270E-04
 d Force = 0.4295222E+01[ 0.429E+01, 0.430E+01]  d Ewald  = 0.4295223E+01-0.256E-06

[...]

 d Force = 0.4166476E-04[-0.396E-04, 0.123E-03]  d Energy = 0.9686344E-04-0.552E-04
 d Force =-0.1030340E+02[-0.103E+02,-0.103E+02]  d Ewald  =-0.1030340E+02 0.166E-06

[...]

 Conjugate gradient step on ions:
 trial-energy change:   -0.000474  1 .order   -0.000400   -0.000505   -0.000294
  (g-gl).g = 0.548E-03      g.g   = 0.487E-03  gl.gl    = 0.381E-03
 g(Force)  = 0.487E-03   g(Stress)= 0.000E+00 ortho     =-0.330E-04
 gamma     =   1.43978
 trial     =   1.14752
 opt step  =   1.55984  (harmonic =   2.75171) maximal distance =0.00228964
 next E    = -1899.282641   (d E  =  -0.00053)

[...]

 eigenvalue-minimisations  :  8358
 total energy-change (2. order) : 0.1960091E-04  (-0.5988411E-05)
 number of electron    1609.9999971 magnetization
 augmentation part      528.4178600 magnetization

[...]

 eigenvalues of (default mixing * dielectric matrix)
  average eigenvalue GAMMA=   0.6868
  2.2688  0.7505  0.2317  0.1200  0.0629

[...]

--------------------------------------- Iteration    133(   7)  ---------------------------------------

 eigenvalue-minimisations  :  5873
 total energy-change (2. order) :-0.2305707E-05  (-0.1950099E-05)
 number of electron    1609.9999971 magnetization
 augmentation part      528.4178600 magnetization

 DIPCOR: dipole corrections for dipol
 direction  3 min pos   151,
 dipolmoment           0.000000      0.000000     -0.852302 electrons x Angstroem
 Tr[quadrupol]    -98796.317066

 energy correction for charged system         0.000000 eV
 dipol+quadrupol energy correction           -0.011192 eV
 added-field ion interaction        -16.871821 eV  (added to PSCEN)

  free energy =  -0.188092867393E+04  energy without entropy=  -0.188079730435E+04

------------------------ aborting loop because EDIFF is reached ----------------------------------------

  Number of pair interactions contributing to vdW energy: 1149574
  Edisp (eV):  -18.35461

  FORCE on cell =-STRESS in cart. coord.  units (eV):
  Direction    XX          YY          ZZ          XY          YZ          ZX
  Alpha Z  2980.67845  2980.67845  2980.67845
  Ewald  346734.91500344216.60246************  1722.53536    -9.22415   -29.06896
  Hartree367611.61549365393.14405************  1495.03164    -8.19186   -24.82385
  E(xc)   -7502.82391 -7503.20008 -7518.64558     0.31595     0.02445    -0.00207
  Local  ************************748428.61088 -3229.74338    17.61706    54.18404
  n-local  2100.47020  2099.01102  1851.59875     1.87054    -0.28271    -0.07684
  augment  8674.79806  8674.53330  8679.46400     0.15666     0.02670    -0.01156
  Kinetic 18965.04021 18954.76732 19071.43013     9.86697    -0.51268    -0.17550
  Fock        0.00000     0.00000     0.00000     0.00000     0.00000     0.00000
  vdW       -22.86509   -21.96301   -19.37104    -0.65532     0.01952     0.01577
  Total    -162.75467  -161.84048   -77.82015    -0.62158    -0.52367     0.04103
  in kB     -42.64147   -42.40195   -20.38876    -0.16285    -0.13720     0.01075

  FREE ENERGIE OF THE ION-ELECTRON SYSTEM (eV)
  free  energy   TOTEN  =     -1899.28328487 eV

  energy  without entropy=    -1899.15191530  energy(sigma->0) =    -1899.21760009

 d Force = 0.4151992E-03[ 0.304E-03, 0.527E-03]  d Energy = 0.4514840E-03-0.363E-04
 d Force =-0.8223431E+01[-0.822E+01,-0.822E+01]  d Ewald  =-0.8223431E+01-0.697E-06

 Conjugate gradient step on ions:
 trial-energy change:   -0.000451  1 .order   -0.000415   -0.000527   -0.000304
  (g-gl).g = 0.176E-03      g.g   = 0.359E-03  gl.gl    = 0.487E-03
 g(Force)  = 0.359E-03   g(Stress)= 0.000E+00 ortho     = 0.523E-04
 gamma     =   0.36036
 trial     =   1.39491
 opt step  =   3.29720  (harmonic =   3.29720) maximal distance =0.00219526
 next E    = -1899.283456   (d E  =  -0.00062)

 reached required accuracy - stopping structural energy minimisation