 vasp.5.4.4.18Apr17-6-g9f103f2a35 (build Jun 30 2017 19:19:18) complex

 executed on         MareNostrum4 date 2022.06.19  18:43:21

 INCAR:
 POTCAR:    PAW_PBE Au 04Oct2007
 POTCAR:    PAW_PBE O 08Apr2002
 POTCAR:    PAW_PBE C 08Apr2002
 POTCAR:    PAW_PBE N 08Apr2002
 POTCAR:    PAW_PBE H 15Jun2001
 POTCAR:    PAW_PBE Au 04Oct2007

 POTCAR:    PAW_PBE O 08Apr2002

[...]

 POTCAR:    PAW_PBE N 08Apr2002

 POTCAR:    PAW_PBE H 15Jun2001

 Optimization of the real space projectors (new method)

 maximal supplied QI-value         = 15.12
 optimisation between [QCUT,QGAM] = [ 10.73, 21.62] = [ 32.26,130.87] Ry
 Optimized for a Real-space Cutoff    1.42 Angstroem

   l    n(q)    QCUT    max X(q) W(low)/X(q) W(high)/X(q)  e(spline)
   2      8    10.734    60.898    0.15E-03    0.34E-03    0.26E-06
   2      8    10.734    58.894    0.16E-03    0.35E-03    0.27E-06
   0      9    10.734   109.617    0.92E-04    0.16E-03    0.12E-06
   0      9    10.734    75.026    0.89E-04    0.15E-03    0.11E-06
   1      9    10.734    16.344    0.25E-03    0.88E-04    0.14E-06
   1      9    10.734    10.160    0.20E-03    0.77E-04    0.11E-06
 Optimization of the real space projectors (new method)

[...]

   l    n(q)    QCUT    max X(q) W(low)/X(q) W(high)/X(q)  e(spline)
   0      8    10.807    79.467    0.34E-03    0.68E-03    0.21E-06
   0      8    10.807    66.151    0.34E-03    0.67E-03    0.21E-06
   1      7    10.807    14.030    0.45E-03    0.13E-02    0.11E-05
   1      7    10.807     9.831    0.48E-03    0.13E-02    0.11E-05
 Optimization of the real space projectors (new method)

 maximal supplied QI-value         = 34.20
 optimisation between [QCUT,QGAM] = [ 10.60, 21.55] = [ 31.48,130.03] Ry
 Optimized for a Real-space Cutoff    1.23 Angstroem

   l    n(q)    QCUT    max X(q) W(low)/X(q) W(high)/X(q)  e(spline)
   0      8    10.603    19.460    0.37E-03    0.59E-03    0.23E-06
   0      8    10.603    12.209    0.35E-03    0.56E-03    0.22E-06
   1      7    10.603     4.655    0.70E-04    0.28E-03    0.29E-06
  PAW_PBE Au 04Oct2007                  :
  PAW_PBE O 08Apr2002                   :
  PAW_PBE C 08Apr2002                   :
  PAW_PBE N 08Apr2002                   :
  PAW_PBE H 15Jun2001                   :

 POSCAR: Au  O  C  N  H
  positions in direct lattice
  velocities in cartesian coordinates
 exchange correlation table for  LEXCH =        8
   RHO(1)=    0.500       N(1)  =     2000
   RHO(2)=  100.500       N(2)  =     4000

 ion  position               nearest neighbor table
   1  0.000  0.000  0.000- 102 2.94  57 2.94  13 2.94 101 2.94   2 2.94 156 2.94  56 2.94  68 2.94
                           114 2.94
   2  0.083  0.083  0.000-   3 2.94   7 2.94   4 2.94 102 2.94  14 2.94  15 2.94   1 2.94  57 2.94
                            13 2.94
   3  0.167  0.167  0.000-   2 2.94   4 2.94   7 2.94  15 2.94   5 2.94  19 2.94  10 2.94   8 2.94
                            17 2.94
   4  0.250  0.000  0.000-   3 2.94   2 2.94  15 2.94  71 2.94  57 2.94  60 2.94   5 2.94  59 2.94
                            16 2.94
   5  0.333  0.083  0.000-  10 2.94  17 2.94   3 2.94   6 2.94  18 2.94  16 2.94   4 2.94  97 2.94
                            60 2.94
   6  0.417  0.167  0.000-  98 2.94  97 2.94 103 2.94   5 2.94  18 2.94 110 2.94  10 2.94  11 2.94
                            22 2.94
   7  0.000  0.250  0.000-   2 2.94   3 2.94   8 2.94  19 2.94 102 2.94 107 2.94 108 2.94  14 2.94
                           120 2.94
   8  0.083  0.333  0.000-  49 2.94   7 2.94  20 2.94  19 2.94  10 2.94   9 2.94 108 2.94   3 2.94
                            21 2.94
   9  0.167  0.417  0.000-  50 2.94  61 2.94  52 2.94  49 2.94  23 2.94  21 2.94   8 2.94  11 2.94
                            10 2.94
  10  0.250  0.250  0.000-   5 2.94  22 2.94  17 2.94  21 2.94   3 2.94   6 2.94   8 2.94  11 2.94
                             9 2.94
  11  0.333  0.333  0.000-  52 2.94  12 2.94 103 2.94  24 2.94   9 2.94  10 2.94   6 2.94  23 2.94
                            22 2.94
  12  0.417  0.417  0.000-  52 2.94  53 2.94  11 2.94  64 2.94 145 2.94  24 2.94 104 2.94 103 2.94
                           116 2.94
  13  0.083  0.000  0.120-  26 2.90  81 2.91  25 2.91  14 2.94   1 2.94  57 2.94  68 2.94 114 2.94
                            15 2.94  71 2.94  69 2.94   2 2.94
  14  0.000  0.167  0.120- 131 2.90  27 2.91  25 2.91  13 2.94 114 2.94  15 2.94   2 2.94 102 2.94
                           118 2.94  19 2.94 120 2.94   7 2.94
  15  0.167  0.083  0.120-  26 2.90  27 2.91  28 2.91  19 2.94   3 2.94  14 2.94  17 2.94   2 2.94
                             4 2.94  16 2.94  13 2.94  71 2.94
  16  0.333  0.000  0.120-  84 2.90  28 2.91  29 2.91  17 2.94  18 2.94 164 2.94   5 2.94  60 2.94
                            15 2.94  71 2.94  72 2.94   4 2.94
  17  0.250  0.167  0.120-  32 2.91  30 2.91  28 2.91  18 2.94  16 2.94  22 2.94   5 2.94  15 2.94
                            10 2.94  19 2.94  21 2.94   3 2.94
  18  0.417  0.083  0.120-  29 2.91 121 2.91  30 2.91  17 2.94  22 2.94  16 2.94 110 2.94   6 2.94
                             5 2.94 109 2.94 164 2.94  97 2.94
  19  0.083  0.250  0.120-  31 2.90  27 2.91  32 2.91  15 2.94   7 2.94   3 2.94   8 2.94  17 2.94
                            14 2.94 120 2.94  21 2.94  20 2.94
  20  1.000  0.417  0.120-  33 2.90 173 2.90  31 2.91 162 2.94  49 2.94  61 2.94 160 2.94   8 2.94
                           120 2.94  21 2.94  19 2.94 108 2.94
  21  0.167  0.333  0.120-  34 2.90  33 2.91  32 2.91  61 2.94  22 2.94  23 2.94   9 2.94  10 2.94
                            20 2.94  19 2.94  17 2.94   8 2.94
  22  0.333  0.250  0.120-  35 2.90  30 2.90  34 2.91  18 2.94  21 2.94  17 2.94  10 2.94 110 2.94
                            24 2.94  23 2.94   6 2.94  11 2.94
  23  0.250  0.417  0.120-  36 2.88  34 2.91  74 2.91  61 2.94  63 2.94  21 2.94  64 2.94  52 2.94
                             9 2.94  24 2.94  22 2.94  11 2.94
  24  0.417  0.333  0.120- 127 2.89  35 2.90  36 2.90  64 2.94  11 2.94  12 2.94 103 2.94 115 2.94
                           116 2.94  23 2.94  22 2.94 110 2.94
  25  0.000  0.083  0.238-  13 2.91 114 2.91  14 2.91  26 2.93  81 2.93 126 2.93 131 2.93 125 2.94
                            27 2.94 138 2.94  37 2.95  38 2.95
  26  0.166  0.001  0.238-  15 2.90  13 2.90  71 2.91  82 2.92  27 2.93  25 2.93  28 2.94  84 2.94
                            93 2.94  38 2.95  81 2.95  40 2.95
  27  0.083  0.167  0.238-  19 2.91  14 2.91  15 2.91  26 2.93 131 2.93  31 2.93  32 2.94  28 2.94
                            25 2.94  43 2.94  39 2.95  38 2.95
  28  0.250  0.084  0.238-  17 2.91  15 2.91  16 2.91  84 2.93  32 2.93  30 2.94  26 2.94  27 2.94
                            39 2.94  29 2.94  41 2.95  40 2.95
  29  0.417  0.000  0.238-  18 2.91 164 2.91  16 2.91  84 2.93 177 2.93  30 2.94 121 2.94 175 2.94
                            41 2.94  28 2.94 133 2.94  96 2.95
  30  0.333  0.167  0.238-  22 2.90  17 2.91  18 2.91  32 2.93  29 2.94  28 2.94  35 2.94  34 2.94
                            42 2.94 121 2.94  41 2.95  46 2.95
  31  0.000  0.333  0.238-  19 2.90 120 2.91  20 2.91  33 2.93  27 2.93 132 2.93 173 2.94 131 2.94
                            32 2.94 144 2.94  44 2.95  43 2.95
  32  0.167  0.250  0.238-  17 2.91  19 2.91  21 2.91  28 2.93  34 2.93  30 2.93  33 2.94  31 2.94
                            27 2.94  39 2.94  44 2.95  46 2.95
  33  0.083  0.416  0.238-  20 2.90  21 2.91  61 2.91  74 2.93  31 2.93 173 2.93  32 2.94  34 2.94
                            44 2.94  73 2.94  85 2.94  45 2.95
  34  0.250  0.333  0.238-  21 2.90  23 2.91  22 2.91  36 2.93  32 2.93  33 2.94  30 2.94  74 2.94
                            35 2.94  46 2.95  47 2.95  45 2.95
  35  0.416  0.250  0.238-  22 2.90  24 2.90 110 2.90 139 2.91  30 2.94  36 2.94  34 2.94  42 2.94
                           121 2.94  47 2.95 127 2.95 123 2.96
  36  0.332  0.417  0.237-  23 2.88  48 2.89  64 2.90  24 2.90  34 2.93  35 2.94  74 2.94  88 2.94
                            76 2.94  47 2.96  77 2.97 127 2.98
  37  1.000  0.000  0.358-  92 2.92  93 2.93 138 2.93 137 2.93 125 2.94  38 2.94  25 2.95 192 2.95
                            81 2.95
  38  0.083  0.083  0.359-  93 2.92  43 2.93 138 2.94  40 2.94  39 2.94  37 2.94  26 2.95  27 2.95
                            25 2.95
  39  0.167  0.167  0.358-  44 2.94  43 2.94  41 2.94  40 2.94  46 2.94  28 2.94  38 2.94  32 2.94
                            27 2.95
  40  0.250  0.000  0.358-  95 2.93  96 2.94  39 2.94  93 2.94  38 2.94  41 2.94  84 2.94  28 2.95
                            26 2.95
  41  0.333  0.083  0.358- 133 2.93  39 2.94  46 2.94  96 2.94  29 2.94  40 2.94  42 2.94  30 2.95
                            28 2.95
  42  0.417  0.167  0.358- 134 2.93  47 2.94 121 2.94 133 2.94  46 2.94  35 2.94  30 2.94  41 2.94
                           139 2.95
  43  0.000  0.250  0.359-  38 2.93 144 2.93  39 2.94  44 2.94 138 2.94 143 2.94  27 2.94 131 2.95
                            31 2.95
  44  0.084  0.333  0.358-  45 2.93 144 2.94  39 2.94  43 2.94  85 2.94  46 2.94  33 2.94  32 2.95
                            31 2.95
  45  0.166  0.417  0.359-  88 2.92  44 2.93  85 2.94  46 2.94  47 2.94  86 2.94  33 2.95  34 2.95
                            74 2.95
  46  0.250  0.250  0.359-  47 2.93  45 2.94  42 2.94  41 2.94  39 2.94  44 2.94  34 2.95  30 2.95
                            32 2.95
  47  0.333  0.333  0.358-  46 2.93  48 2.94  42 2.94  88 2.94  45 2.94  34 2.95  35 2.95  36 2.96
                           139 2.96
  48  0.416  0.417  0.354-  77 2.89  36 2.89 127 2.90  47 2.94 139 2.94 140 2.96 181 2.96  89 2.96
                            88 2.96
  49  1.000  0.500  0.000-   8 2.94  20 2.94   9 2.94 108 2.94  50 2.94 149 2.94 150 2.94 162 2.94
                            61 2.94
  50  0.083  0.583  0.000-   9 2.94  63 2.94  61 2.94  62 2.94  51 2.94  52 2.94  49 2.94 150 2.94
                            55 2.94
  51  0.167  0.667  0.000-  56 2.94  53 2.94  58 2.94  65 2.94  50 2.94  55 2.94  52 2.94  63 2.94
                            67 2.94
  52  0.250  0.500  0.000-  12 2.94  11 2.94  53 2.94   9 2.94  23 2.94  64 2.94  50 2.94  51 2.94
                            63 2.94
  53  0.333  0.583  0.000-  12 2.94  52 2.94  51 2.94  64 2.94  65 2.94  54 2.94 145 2.94  58 2.94
                            66 2.94
  54  0.417  0.667  0.000-  59 2.94 158 2.94  66 2.94  70 2.94  53 2.94 146 2.94 151 2.94  58 2.94
                           145 2.94
  55  1.000  0.750  0.000- 156 2.94 155 2.94  56 2.94 168 2.94  67 2.94  62 2.94 150 2.94  51 2.94
                            50 2.94
  56  0.083  0.833  0.000-  58 2.94  51 2.94  57 2.94  55 2.94  67 2.94  69 2.94 156 2.94   1 2.94
                            68 2.94
  57  0.167  0.917  0.000-  58 2.94  56 2.94   1 2.94  69 2.94  13 2.94   4 2.94  59 2.94   2 2.94
                            71 2.94
  58  0.250  0.750  0.000-  56 2.94  57 2.94  51 2.94  69 2.94  59 2.94  65 2.94  54 2.94  53 2.94
                            70 2.94
  59  0.333  0.833  0.000-  54 2.94  70 2.94 151 2.94  58 2.94  72 2.94  71 2.94  60 2.94  57 2.94
                             4 2.94
[...]
   0.193E+02 -.233E+02 0.228E+04   -.193E+02 0.233E+02 -.228E+04   -.155E-02 -.396E-02 -.403E+00   -.213E-03 0.850E-04 -.116E-02
   0.110E+02 -.290E+02 0.228E+04   -.110E+02 0.291E+02 -.228E+04   -.176E-03 -.928E-02 -.390E+00   -.972E-04 0.116E-03 -.118E-02
   0.164E+02 -.295E+02 0.227E+04   -.164E+02 0.295E+02 -.227E+04   -.187E-02 0.648E-02 -.407E+00   -.153E-03 0.256E-03 -.913E-03
   0.323E+00 -.320E+02 0.228E+04   -.317E+00 0.320E+02 -.227E+04   -.734E-02 0.203E-02 -.391E+00   0.211E-04 0.184E-03 -.105E-02
   -.571E+01 -.202E+02 0.228E+04   0.571E+01 0.202E+02 -.228E+04   0.378E-02 0.696E-02 -.410E+00   -.707E-06 -.659E-04 -.127E-02
[...]
   0.869E+02 -.400E+02 -.176E+03   -.919E+02 0.426E+02 0.176E+03   0.508E+01 -.267E+01 0.337E+00   -.141E-03 0.631E-04 0.107E-03
   0.876E+02 0.113E+02 -.174E+03   -.926E+02 -.145E+02 0.174E+03   0.504E+01 0.320E+01 0.262E+00   -.149E-03 -.738E-04 0.125E-03
   -.617E+02 0.534E+02 -.175E+03   0.669E+02 -.559E+02 0.175E+03   -.530E+01 0.257E+01 -.245E+00   0.145E-03 -.717E-04 0.121E-03
   0.472E+01 -.109E+03 -.168E+03   -.559E+01 0.116E+03 0.168E+03   0.886E+00 -.746E+01 0.381E+00   0.728E-04 0.116E-03 0.110E-03
   -.967E+02 0.472E+02 -.168E+03   0.104E+03 -.500E+02 0.167E+03   -.693E+01 0.279E+01 0.968E+00   0.759E-04 -.933E-04 0.115E-03
   -.196E+01 -.590E+02 -.182E+03   0.369E+01 0.609E+02 0.187E+03   -.177E+01 -.187E+01 -.476E+01   0.160E-04 0.120E-03 0.211E-03
   0.699E+02 -.552E+02 -.170E+03   -.750E+02 0.570E+02 0.169E+03   0.525E+01 -.179E+01 0.587E+00   -.684E-04 0.108E-03 0.113E-03
   -.128E+02 -.675E+02 -.159E+03   0.155E+02 0.700E+02 0.156E+03   -.274E+01 -.250E+01 0.386E+01   0.288E-04 0.100E-03 0.394E-04
   -.593E+02 -.624E+02 -.166E+03   0.619E+02 0.674E+02 0.164E+03   -.263E+01 -.505E+01 0.122E+01   0.597E-04 0.321E-04 0.152E-03
   -.554E+02 0.113E+02 -.180E+03   0.569E+02 -.131E+02 0.185E+03   -.143E+01 0.189E+01 -.519E+01   0.783E-04 0.113E-04 0.213E-03
   -.615E+02 0.349E+02 -.157E+03   0.631E+02 -.388E+02 0.153E+03   -.149E+01 0.401E+01 0.380E+01   0.642E-04 -.932E-05 0.949E-04
   0.345E+02 0.389E+02 -.179E+03   -.365E+02 -.390E+02 0.184E+03   0.211E+01 0.119E+00 -.528E+01   -.431E-04 -.605E-04 0.224E-03
   0.629E+02 0.345E+02 -.156E+03   -.672E+02 -.339E+02 0.152E+03   0.438E+01 -.583E+00 0.365E+01   -.458E-04 -.394E-04 0.147E-03
   -.245E+02 0.819E+02 -.165E+03   0.275E+02 -.866E+02 0.163E+03   -.296E+01 0.483E+01 0.117E+01   0.412E-05 -.699E-04 0.179E-03
   -.122E+02 -.137E+02 0.225E+01   0.151E-11 0.144E-11 -.108E-10   0.121E+02 0.138E+02 -.162E+01   0.157E-02 -.732E-03 -.417E+00

 POSITION                                       TOTAL-FORCE (eV/Angst)
      0.00000      0.00000      0.00000         0.001142     -0.003822     -0.011100
      2.54506      1.46939      0.00000         0.001532     -0.001545     -0.010740
      5.09012      2.93878      0.00000        -0.000142      0.001266     -0.010707
      5.09012      0.00000      0.00000        -0.002562     -0.005188     -0.010114
      7.63518      1.46939      0.00000         0.002336     -0.001428     -0.013188
     10.18024      2.93878      0.00000        -0.000311      0.000654     -0.013565
      2.54506      4.40817      0.00000         0.000317      0.000373     -0.013230
      5.09012      5.87756      0.00000         0.003458      0.002449     -0.010457
      7.63518      7.34695      0.00000         0.003427     -0.002902     -0.008884
      7.63518      4.40817      0.00000         0.001357      0.005709     -0.008907
     10.18024      5.87756      0.00000        -0.001923     -0.000048     -0.017236
     12.72529      7.34695      0.00000         0.000981     -0.002062     -0.022698
      1.69671      0.00000      2.39950        -0.001530      0.002156      0.011248
      1.69671      2.93878      2.39950         0.000143     -0.003832      0.011056
      4.24176      1.46939      2.39950         0.006594      0.005481      0.010930
      6.78682      0.00000      2.39950         0.009849      0.013527      0.009809
      6.78682      2.93878      2.39950        -0.003704     -0.002138      0.011430
      9.33188      1.46939      2.39950        -0.000375     -0.000561      0.016832
      4.24176      4.40817      2.39950         0.001778     -0.000055      0.011395
     24.60224      7.34695      2.39950        -0.000300     -0.003667      0.005253
      6.78682      5.87756      2.39950        -0.005646     -0.002050      0.015266
      9.33188      4.40817      2.39950        -0.002117     -0.000374      0.010017
      9.33188      7.34695      2.39950        -0.015464     -0.005585     -0.015997
     11.87694      5.87756      2.39950        -0.012960      0.001040     -0.016864
      0.84866      1.46799      4.75980         0.000284      0.001500      0.004792
      3.39182      0.01023      4.75754         0.004995     -0.004340      0.009548
      3.39313      2.94070      4.75886         0.006618     -0.010740      0.011453
      5.93915      1.47302      4.76093         0.004122     -0.009329      0.001190
      8.48780      0.00547      4.76330        -0.005612     -0.008466     -0.013925
      8.48284      2.94093      4.75847        -0.000377     -0.003054      0.004149
      3.39510      5.87295      4.75973        -0.005695     -0.003000      0.003149
      5.93957      4.40551      4.75968         0.001844      0.009103      0.008179
      5.93005      7.34109      4.76080         0.021713      0.005767     -0.002721
      8.47689      5.87842      4.75955        -0.013471     -0.009375      0.016057
     11.02462      4.41232      4.75136        -0.007148      0.005303      0.002462
     11.00519      7.35011      4.74274         0.030529      0.001466      0.016018
     20.35357      0.00439      7.16879         0.005787     -0.000608      0.001283
      2.54667      1.47116      7.17180        -0.003362      0.001923     -0.005174
      5.09547      2.93766      7.16625        -0.008026      0.001801      0.009083
      5.09028      0.00016      7.16865        -0.002357      0.004207      0.002267
      7.63866      1.47007      7.16630        -0.007501      0.003454      0.005397
     10.18687      2.94256      7.15577        -0.010753      0.001182     -0.010021
      2.55013      4.40100      7.17065        -0.003027      0.007719     -0.003132
      5.09144      5.87311      7.16825         0.000416     -0.002468      0.010390
      7.62642      7.34484      7.17488        -0.000031     -0.004696     -0.009337
      7.64025      4.40856      7.17133        -0.007017     -0.002318     -0.007006
     10.17797      5.87964      7.16921        -0.001107     -0.006708     -0.013922
     12.71564      7.35147      7.07367        -0.002830     -0.012034     -0.033823
     25.45059      8.81634      0.00000         0.004681     -0.001652     -0.009577
      7.63518     10.28573      0.00000         0.004217      0.000430     -0.009144
     10.18024     11.75512      0.00000         0.001485     -0.002314     -0.015907
     10.18024      8.81634      0.00000        -0.000333      0.000136     -0.017392
     12.72529     10.28573      0.00000        -0.001545     -0.000782     -0.022640
     15.27035     11.75512      0.00000         0.003204     -0.001487     -0.020673
     27.99565     13.22451      0.00000         0.006057     -0.001751     -0.008924
     10.18024     14.69390      0.00000         0.000778      0.001484     -0.013120
     12.72529     16.16330      0.00000        -0.000487     -0.002521     -0.013815
     12.72529     13.22451      0.00000         0.002128      0.000845     -0.020821
     15.27035     14.69390      0.00000        -0.000391     -0.004179     -0.011136
     17.81541     16.16330      0.00000        -0.001923     -0.005530     -0.010789
[...]
     13.47153      7.22641     10.22568        -0.043829      0.092084      0.023169
     11.13382     11.19757     10.11909         0.069105     -0.024541      0.041641
     11.18591      8.71389     10.09979         0.050230      0.032153      0.026262
     15.50733      8.86450     10.32183        -0.079014      0.054371      0.023978
     15.52624     12.56496     10.30793         0.013982     -0.108276      0.025934
     14.40993      6.85444     10.09970        -0.000360     -0.028281      0.026620
     13.55773     13.32524     11.35019        -0.005608     -0.013568     -0.012148
     12.14194     13.29302     10.26700         0.038638     -0.006503      0.021972
     13.77050     13.45306      9.58732         0.000118     -0.003173      0.024118
     19.66631     12.95233     10.21432        -0.006904     -0.014953      0.022430
     19.44724     11.63950     11.44615        -0.001271      0.010840     -0.009916
     19.46468     11.23473      9.69745         0.019232     -0.005010      0.014408
     11.69702      3.94023     11.50718         0.023725      0.013060     -0.038861
     11.26176      4.07265      9.76990        -0.011431     -0.022120      0.011045
     12.66622      3.05013     10.26047        -0.029019      0.047460      0.015505
    total drift:                               -0.038282      0.063609      0.208110

  FREE ENERGIE OF THE ION-ELECTRON SYSTEM (eV)
  free  energy   TOTEN  =      -799.26602204 eV

  energy  without entropy=     -799.19028790  energy(sigma->0) =     -799.22815497

[...]

  free energy =  -0.781246224268E+03  energy without entropy=  -0.781170490849E+03

[...]

 d Force = 0.1546559E-02[-0.111E-02, 0.420E-02]  d Energy = 0.1537263E-02 0.930E-05
 d Force = 0.4641282E+01[ 0.463E+01, 0.465E+01]  d Ewald  = 0.4641261E+01 0.215E-04

 Steepest descent step on ions:
 trial-energy change:   -0.001537  1 .order   -0.001547   -0.004205    0.001112
  (g-gl).g = 0.420E-02      g.g   = 0.420E-02  gl.gl    = 0.000E+00
 g(Force)  = 0.420E-02   g(Stress)= 0.000E+00 ortho     = 0.000E+00
 gamma     =   0.00000
 trial     =   1.00000
 opt step  =   0.79089  (harmonic =   0.79089) maximal distance =0.00266045
 next E    =  -799.267685   (d E  =  -0.00166)

[...]

 d Force = 0.1184992E-03[ 0.452E-05, 0.232E-03]  d Energy = 0.1255307E-03-0.703E-05
 d Force =-0.9684128E+00[-0.969E+00,-0.968E+00]  d Ewald  =-0.9684125E+00-0.312E-06

[...]

 d Force = 0.1000089E-02[ 0.518E-03, 0.148E-02]  d Energy = 0.1017924E-02-0.178E-04
 d Force = 0.2763075E+01[ 0.276E+01, 0.277E+01]  d Ewald  = 0.2763075E+01-0.339E-06

 Conjugate gradient step on ions:
 trial-energy change:   -0.001018  1 .order   -0.001000   -0.001482   -0.000518
  (g-gl).g = 0.158E-02      g.g   = 0.156E-02  gl.gl    = 0.420E-02
 g(Force)  = 0.156E-02   g(Stress)= 0.000E+00 ortho     =-0.216E-04
 gamma     =   0.37500
 trial     =   0.95818
 opt step  =   1.47257  (harmonic =   1.47257) maximal distance =0.00160266
 next E    =  -799.268824   (d E  =  -0.00114)

[...]

 Conjugate gradient step on ions:
 trial-energy change:   -0.000994  1 .order   -0.000970   -0.001163   -0.000777
  (g-gl).g = 0.110E-02      g.g   = 0.113E-02  gl.gl    = 0.156E-02
 g(Force)  = 0.113E-02   g(Stress)= 0.000E+00 ortho     = 0.731E-05
 gamma     =   0.70658
 trial     =   1.02710
 opt step  =   3.09634  (harmonic =   3.09634) maximal distance =0.00341719
 next E    =  -799.270605   (d E  =  -0.00175)

[...]

 d Force = 0.1436721E-03[-0.153E-04, 0.303E-03]  d Energy = 0.1270654E-03 0.166E-04
 d Force =-0.1300564E+02[-0.130E+02,-0.130E+02]  d Ewald  =-0.1300564E+02 0.121E-06

[...]

 d Force =-0.3856868E-03[-0.271E-02, 0.194E-02]  d Energy =-0.1664298E-03-0.219E-03
 d Force = 0.8084743E+02[ 0.807E+02, 0.810E+02]  d Ewald  = 0.8084742E+02 0.393E-05

[...]

 d Force =-0.8194466E-04[-0.611E-03, 0.447E-03]  d Energy = 0.7733187E-05-0.897E-04
 d Force = 0.6346141E+02[ 0.634E+02, 0.635E+02]  d Ewald  = 0.6346140E+02 0.802E-06

[...]

 d Force =-0.1035922E-03[-0.412E-03, 0.205E-03]  d Energy =-0.3950864E-04-0.641E-04
 d Force = 0.4859188E+02[ 0.486E+02, 0.486E+02]  d Ewald  = 0.4859188E+02 0.639E-07

[...]

 d Force = 0.6596040E-04[-0.134E-04, 0.145E-03]  d Energy = 0.2349950E-04 0.425E-04
 d Force =-0.2447986E+02[-0.245E+02,-0.245E+02]  d Ewald  =-0.2447986E+02-0.669E-06

[...]

 d Force = 0.3513850E-04[-0.224E-05, 0.725E-04]  d Energy =-0.2797889E-06 0.354E-04
 d Force =-0.1638301E+02[-0.164E+02,-0.164E+02]  d Ewald  =-0.1638301E+02 0.273E-06

[...]

 d Force =-0.6314198E-07[-0.160E-06, 0.342E-07]  d Energy = 0.4454295E-06-0.509E-06
 d Force =-0.2014762E+00[-0.201E+00,-0.201E+00]  d Ewald  =-0.2014762E+00 0.716E-08

[...]

 d Force =-0.1212747E-05[-0.750E-04, 0.726E-04]  d Energy = 0.5518359E-04-0.564E-04
 d Force = 0.1452329E+02[ 0.145E+02, 0.145E+02]  d Ewald  = 0.1452329E+02 0.396E-06

[...]

 d Force = 0.1732372E-04[-0.348E-05, 0.381E-04]  d Energy =-0.1085429E-04 0.282E-04
 d Force =-0.7380596E+01[-0.738E+01,-0.738E+01]  d Ewald  =-0.7380596E+01-0.673E-06

[...]

 Conjugate gradient step on ions:
 trial-energy change:   -0.000240  1 .order   -0.000199   -0.000305   -0.000093
  (g-gl).g = 0.208E-03      g.g   = 0.237E-03  gl.gl    = 0.238E-03
 g(Force)  = 0.237E-03   g(Stress)= 0.000E+00 ortho     = 0.506E-05
 gamma     =   0.87233
 trial     =   1.26581
 opt step  =   1.50082  (harmonic =   1.82382) maximal distance =0.00180789
 next E    =  -799.339039   (d E  =  -0.00025)

[...]

 d Force = 0.4821980E-05[-0.254E-05, 0.122E-04]  d Energy = 0.1881165E-04-0.140E-04
 d Force = 0.2843911E+01[ 0.284E+01, 0.284E+01]  d Ewald  = 0.2843911E+01-0.466E-09

 real space projection operators:
  max/ min on nodes  :      14447.26      14436.21

[...]

 eigenvalue-minimisations  :  8402
 total energy-change (2. order) :-0.2003531E-04  (-0.3033874E-05)
 number of electron    2203.9997634 magnetization
 augmentation part      778.1610523 magnetization

[...]

 eigenvalues of (default mixing * dielectric matrix)
  average eigenvalue GAMMA=   1.1426
  2.2740  1.0231  1.0231  0.2503

[...]

--------------------------------------- Iteration    105(   6)  ---------------------------------------

 eigenvalue-minimisations  :  6991
 total energy-change (2. order) : 0.1345761E-06  (-0.1692239E-06)
 number of electron    2203.9997634 magnetization
 augmentation part      778.1610143 magnetization

 DIPCOR: dipole corrections for dipol
 direction  3 min pos   155,
 dipolmoment           0.000000      0.000000     -0.477476 electrons x Angstroem
 Tr[quadrupol]   -159433.585942

 energy correction for charged system         0.000000 eV
 dipol+quadrupol energy correction           -0.003072 eV
 added-field ion interaction        -11.078376 eV  (added to PSCEN)

  free energy =  -0.781443341668E+03  energy without entropy=  -0.781364947986E+03

------------------------ aborting loop because EDIFF is reached ----------------------------------------

  Number of pair interactions contributing to vdW energy:  918306
  Edisp (eV):  -17.89619

  FORCE on cell =-STRESS in cart. coord.  units (eV):
  Direction    XX          YY          ZZ          XY          YZ          ZX
  Alpha Z  6362.18211  6362.18211  6362.18211
  Ewald  443908.80832444858.15612************  1594.32476    17.44263    59.85740
  Hartree494235.17900495089.83458************  1475.00727     6.93846    50.11944
  E(xc)   -9850.63038 -9850.49840 -9895.61960     0.07221     0.05371     0.01173
  Local  ************************997350.07005 -3075.60000   -23.84221  -110.76836
  n-local  -504.23412  -504.17737  -382.08298     2.98050    -0.24270     0.07173
  augment 13009.55802 13009.64662 13091.94062     0.11555     0.13739     0.02886
  Kinetic 30823.31074 30828.34062 31272.97857     3.00850    -0.66562     0.83498
  Fock        0.00000     0.00000     0.00000     0.00000     0.00000     0.00000
  vdW       -23.94896   -24.14063   -19.67159    -0.08123    -0.00301    -0.03669
  Total    -124.38565  -124.86524    -2.75501    -0.17245    -0.18136     0.11908
  in kB     -27.75521   -27.86223    -0.61475    -0.03848    -0.04047     0.02657

  FREE ENERGIE OF THE ION-ELECTRON SYSTEM (eV)
  free  energy   TOTEN  =      -799.33952866 eV

  energy  without entropy=     -799.26113498  energy(sigma->0) =     -799.30033182

 d Force = 0.1830151E-03[ 0.773E-04, 0.289E-03]  d Energy = 0.2290704E-03-0.461E-04
 d Force = 0.9158952E+01[ 0.916E+01, 0.916E+01]  d Ewald  = 0.9158952E+01-0.163E-06

 Conjugate gradient step on ions:
 trial-energy change:   -0.000229  1 .order   -0.000183   -0.000289   -0.000077
  (g-gl).g = 0.172E-03      g.g   = 0.212E-03  gl.gl    = 0.200E-03
 g(Force)  = 0.212E-03   g(Stress)= 0.000E+00 ortho     =-0.678E-05
 gamma     =   0.85911
 trial     =   1.40193
 opt step  =   1.60708  (harmonic =   1.91443) maximal distance =0.00202344
 next E    =  -799.339534   (d E  =  -0.00023)

 reached required accuracy - stopping structural energy minimisation